python TBG.py -m 6 -n 7 -z 20.000000 -d 2.000000 -p 0.0,0.0 # theta=0.088765
    1.0
     23.44337980     14.95978165     0.00000000
    -1.23386019     27.78245164     0.00000000
     0.00000000     0.00000000     20.00000000
    C
    508
Direct
     0.94488189     0.95275591     0.10000000
     0.95275591     0.94488189     0.20000000
     0.00000000     0.00000000     0.10000000
     0.96062992     0.78740157     0.20000000
     0.93700787     0.80314961     0.10000000
     0.00787402     0.84251969     0.20000000
     0.99212598     0.85039370     0.10000000
     0.05511811     0.89763780     0.20000000
     0.04724409     0.89763780     0.10000000
     0.10236220     0.95275591     0.20000000
     0.10236220     0.94488189     0.10000000
     0.96850394     0.62992126     0.20000000
     0.15748031     0.99212598     0.10000000
     0.01574803     0.68503937     0.20000000
     0.92913386     0.65354331     0.10000000
     0.06299213     0.74015748     0.20000000
     0.98425197     0.70078740     0.10000000
     0.11023622     0.79527559     0.20000000
     0.03937008     0.74803150     0.10000000
     0.15748031     0.85039370     0.20000000
     0.09448819     0.79527559     0.10000000
     0.20472441     0.90551181     0.20000000
     0.14960630     0.84251969     0.10000000
     0.25196850     0.96062992     0.20000000
     0.20472441     0.88976378     0.10000000
     0.92913386     0.41732283     0.20000000
     0.25984252     0.93700787     0.10000000
     0.97637795     0.47244094     0.20000000
     0.31496063     0.98425197     0.10000000
     0.02362205     0.52755906     0.20000000
     0.92125984     0.50393701     0.10000000
     0.07086614     0.58267717     0.20000000
     0.97637795     0.55118110     0.10000000
     0.11811024     0.63779528     0.20000000
     0.03149606     0.59842520     0.10000000
     0.16535433     0.69291339     0.20000000
     0.08661417     0.64566929     0.10000000
     0.21259843     0.74803150     0.20000000
     0.14173228     0.69291339     0.10000000
     0.25984252     0.80314961     0.20000000
     0.19685039     0.74015748     0.10000000
     0.30708661     0.85826772     0.20000000
     0.25196850     0.78740157     0.10000000
     0.35433071     0.91338583     0.20000000
     0.30708661     0.83464567     0.10000000
     0.40157480     0.96850394     0.20000000
     0.36220472     0.88188976     0.10000000
     0.93700787     0.25984252     0.20000000
     0.41732283     0.92913386     0.10000000
     0.98425197     0.31496063     0.20000000
     0.47244094     0.97637795     0.10000000
     0.03149606     0.37007874     0.20000000
     0.96850394     0.40157480     0.10000000
     0.07874016     0.42519685     0.20000000
     0.02362205     0.44881890     0.10000000
     0.12598425     0.48031496     0.20000000
     0.07874016     0.49606299     0.10000000
     0.17322835     0.53543307     0.20000000
     0.13385827     0.54330709     0.10000000
     0.22047244     0.59055118     0.20000000
     0.18897638     0.59055118     0.10000000
     0.26771654     0.64566929     0.20000000
     0.24409449     0.63779528     0.10000000
     0.31496063     0.70078740     0.20000000
     0.29921260     0.68503937     0.10000000
     0.36220472     0.75590551     0.20000000
     0.35433071     0.73228346     0.10000000
     0.40944882     0.81102362     0.20000000
     0.40944882     0.77952756     0.10000000
     0.45669291     0.86614173     0.20000000
     0.46456693     0.82677165     0.10000000
     0.50393701     0.92125984     0.20000000
     0.51968504     0.87401575     0.10000000
     0.55118110     0.97637795     0.20000000
     0.57480315     0.92125984     0.10000000
     0.94488189     0.10236220     0.20000000
     0.62992126     0.96850394     0.10000000
     0.99212598     0.15748031     0.20000000
     0.96062992     0.25196850     0.10000000
     0.03937008     0.21259843     0.20000000
     0.01574803     0.29921260     0.10000000
     0.08661417     0.26771654     0.20000000
     0.07086614     0.34645669     0.10000000
     0.13385827     0.32283465     0.20000000
     0.12598425     0.39370079     0.10000000
     0.18110236     0.37795276     0.20000000
     0.18110236     0.44094488     0.10000000
     0.22834646     0.43307087     0.20000000
     0.23622047     0.48818898     0.10000000
     0.27559055     0.48818898     0.20000000
     0.29133858     0.53543307     0.10000000
     0.32283465     0.54330709     0.20000000
     0.34645669     0.58267717     0.10000000
     0.37007874     0.59842520     0.20000000
     0.40157480     0.62992126     0.10000000
     0.41732283     0.65354331     0.20000000
     0.45669291     0.67716535     0.10000000
     0.46456693     0.70866142     0.20000000
     0.51181102     0.72440945     0.10000000
     0.51181102     0.76377953     0.20000000
     0.56692913     0.77165354     0.10000000
     0.55905512     0.81889764     0.20000000
     0.62204724     0.81889764     0.10000000
     0.60629921     0.87401575     0.20000000
     0.67716535     0.86614173     0.10000000
     0.65354331     0.92913386     0.20000000
     0.73228346     0.91338583     0.10000000
     0.70078740     0.98425197     0.20000000
     0.78740157     0.96062992     0.10000000
     0.00000000     0.00000000     0.20000000
     0.95275591     0.10236220     0.10000000
     0.04724409     0.05511811     0.20000000
     0.00787402     0.14960630     0.10000000
     0.09448819     0.11023622     0.20000000
     0.06299213     0.19685039     0.10000000
     0.14173228     0.16535433     0.20000000
     0.11811024     0.24409449     0.10000000
     0.18897638     0.22047244     0.20000000
     0.17322835     0.29133858     0.10000000
     0.23622047     0.27559055     0.20000000
     0.22834646     0.33858268     0.10000000
     0.28346457     0.33070866     0.20000000
     0.28346457     0.38582677     0.10000000
     0.33070866     0.38582677     0.20000000
     0.33858268     0.43307087     0.10000000
     0.37795276     0.44094488     0.20000000
     0.39370079     0.48031496     0.10000000
     0.42519685     0.49606299     0.20000000
     0.44881890     0.52755906     0.10000000
     0.47244094     0.55118110     0.20000000
     0.50393701     0.57480315     0.10000000
     0.51968504     0.60629921     0.20000000
     0.55905512     0.62204724     0.10000000
     0.56692913     0.66141732     0.20000000
     0.61417323     0.66929134     0.10000000
     0.61417323     0.71653543     0.20000000
     0.66929134     0.71653543     0.10000000
     0.66141732     0.77165354     0.20000000
     0.72440945     0.76377953     0.10000000
     0.70866142     0.82677165     0.20000000
     0.77952756     0.81102362     0.10000000
     0.75590551     0.88188976     0.20000000
     0.83464567     0.85826772     0.10000000
     0.80314961     0.93700787     0.20000000
     0.88976378     0.90551181     0.10000000
     0.85039370     0.99212598     0.20000000
     0.05511811     0.04724409     0.10000000
     0.14960630     0.00787402     0.20000000
     0.11023622     0.09448819     0.10000000
     0.19685039     0.06299213     0.20000000
     0.16535433     0.14173228     0.10000000
     0.24409449     0.11811024     0.20000000
     0.22047244     0.18897638     0.10000000
     0.29133858     0.17322835     0.20000000
     0.27559055     0.23622047     0.10000000
     0.33858268     0.22834646     0.20000000
     0.33070866     0.28346457     0.10000000
     0.38582677     0.28346457     0.20000000
     0.38582677     0.33070866     0.10000000
     0.43307087     0.33858268     0.20000000
     0.44094488     0.37795276     0.10000000
     0.48031496     0.39370079     0.20000000
     0.49606299     0.42519685     0.10000000
     0.52755906     0.44881890     0.20000000
     0.55118110     0.47244094     0.10000000
     0.57480315     0.50393701     0.20000000
     0.60629921     0.51968504     0.10000000
     0.62204724     0.55905512     0.20000000
     0.66141732     0.56692913     0.10000000
     0.66929134     0.61417323     0.20000000
     0.71653543     0.61417323     0.10000000
     0.71653543     0.66929134     0.20000000
     0.77165354     0.66141732     0.10000000
     0.76377953     0.72440945     0.20000000
     0.82677165     0.70866142     0.10000000
     0.81102362     0.77952756     0.20000000
     0.88188976     0.75590551     0.10000000
     0.85826772     0.83464567     0.20000000
     0.21259843     0.03937008     0.10000000
     0.90551181     0.88976378     0.20000000
     0.26771654     0.08661417     0.10000000
     0.29921260     0.01574803     0.20000000
     0.32283465     0.13385827     0.10000000
     0.34645669     0.07086614     0.20000000
     0.37795276     0.18110236     0.10000000
     0.39370079     0.12598425     0.20000000
     0.43307087     0.22834646     0.10000000
     0.44094488     0.18110236     0.20000000
     0.48818898     0.27559055     0.10000000
     0.48818898     0.23622047     0.20000000
     0.54330709     0.32283465     0.10000000
     0.53543307     0.29133858     0.20000000
     0.59842520     0.37007874     0.10000000
     0.58267717     0.34645669     0.20000000
     0.65354331     0.41732283     0.10000000
     0.62992126     0.40157480     0.20000000
     0.70866142     0.46456693     0.10000000
     0.67716535     0.45669291     0.20000000
     0.76377953     0.51181102     0.10000000
     0.72440945     0.51181102     0.20000000
     0.81889764     0.55905512     0.10000000
     0.77165354     0.56692913     0.20000000
     0.87401575     0.60629921     0.10000000
     0.81889764     0.62204724     0.20000000
     0.37007874     0.03149606     0.10000000
     0.86614173     0.67716535     0.20000000
     0.42519685     0.07874016     0.10000000
     0.91338583     0.73228346     0.20000000
     0.48031496     0.12598425     0.10000000
     0.44881890     0.02362205     0.20000000
     0.53543307     0.17322835     0.10000000
     0.49606299     0.07874016     0.20000000
     0.59055118     0.22047244     0.10000000
     0.54330709     0.13385827     0.20000000
     0.64566929     0.26771654     0.10000000
     0.59055118     0.18897638     0.20000000
     0.70078740     0.31496063     0.10000000
     0.63779528     0.24409449     0.20000000
     0.75590551     0.36220472     0.10000000
     0.68503937     0.29921260     0.20000000
     0.81102362     0.40944882     0.10000000
     0.73228346     0.35433071     0.20000000
     0.86614173     0.45669291     0.10000000
     0.77952756     0.40944882     0.20000000
     0.52755906     0.02362205     0.10000000
     0.82677165     0.46456693     0.20000000
     0.58267717     0.07086614     0.10000000
     0.87401575     0.51968504     0.20000000
     0.63779528     0.11811024     0.10000000
     0.92125984     0.57480315     0.20000000
     0.69291339     0.16535433     0.10000000
     0.59842520     0.03149606     0.20000000
     0.74803150     0.21259843     0.10000000
     0.64566929     0.08661417     0.20000000
     0.80314961     0.25984252     0.10000000
     0.69291339     0.14173228     0.20000000
     0.85826772     0.30708661     0.10000000
     0.74015748     0.19685039     0.20000000
     0.91338583     0.35433071     0.10000000
     0.78740157     0.25196850     0.20000000
     0.68503937     0.01574803     0.10000000
     0.83464567     0.30708661     0.20000000
     0.74015748     0.06299213     0.10000000
     0.88188976     0.36220472     0.20000000
     0.79527559     0.11023622     0.10000000
     0.74803150     0.03937008     0.20000000
     0.85039370     0.15748031     0.10000000
     0.79527559     0.09448819     0.20000000
     0.90551181     0.20472441     0.10000000
     0.84251969     0.14960630     0.20000000
     0.84251969     0.00787402     0.10000000
     0.88976378     0.20472441     0.20000000
     0.89763780     0.05511811     0.10000000
     0.89763780     0.04724409     0.20000000
     0.04986877     0.94750656     0.10000000
     0.05249344     0.95013123     0.20000000
     0.10498688     0.99475065     0.10000000
     0.06036745     0.79265092     0.20000000
     0.04199475     0.79790026     0.10000000
     0.10761155     0.84776903     0.20000000
     0.09711286     0.84514435     0.10000000
     0.15485564     0.90288714     0.20000000
     0.15223097     0.89238845     0.10000000
     0.20209974     0.95800525     0.20000000
     0.20734908     0.93963254     0.10000000
     0.06824147     0.63517060     0.20000000
     0.26246719     0.98687664     0.10000000
     0.11548556     0.69028871     0.20000000
     0.03412073     0.64829396     0.10000000
     0.16272966     0.74540682     0.20000000
     0.08923885     0.69553805     0.10000000
     0.20997375     0.80052493     0.20000000
     0.14435696     0.74278215     0.10000000
     0.25721785     0.85564304     0.20000000
     0.19947507     0.79002624     0.10000000
     0.30446194     0.91076115     0.20000000
     0.25459318     0.83727034     0.10000000
     0.35170604     0.96587926     0.20000000
     0.30971129     0.88451443     0.10000000
     0.02887139     0.42257218     0.20000000
     0.36482940     0.93175853     0.10000000
     0.07611549     0.47769029     0.20000000
     0.41994751     0.97900262     0.10000000
     0.12335958     0.53280840     0.20000000
     0.02624672     0.49868766     0.10000000
     0.17060367     0.58792651     0.20000000
     0.08136483     0.54593176     0.10000000
     0.21784777     0.64304462     0.20000000
     0.13648294     0.59317585     0.10000000
     0.26509186     0.69816273     0.20000000
     0.19160105     0.64041994     0.10000000
     0.31233596     0.75328084     0.20000000
     0.24671916     0.68766404     0.10000000
     0.35958005     0.80839895     0.20000000
     0.30183727     0.73490813     0.10000000
     0.40682415     0.86351706     0.20000000
     0.35695538     0.78215223     0.10000000
     0.45406824     0.91863517     0.20000000
     0.41207349     0.82939632     0.10000000
     0.50131234     0.97375328     0.20000000
     0.46719160     0.87664042     0.10000000
     0.03674541     0.26509186     0.20000000
     0.52230971     0.92388451     0.10000000
     0.08398950     0.32020997     0.20000000
     0.57742782     0.97112861     0.10000000
     0.13123360     0.37532808     0.20000000
     0.07349081     0.39632546     0.10000000
     0.17847769     0.43044619     0.20000000
     0.12860892     0.44356955     0.10000000
     0.22572178     0.48556430     0.20000000
     0.18372703     0.49081365     0.10000000
     0.27296588     0.54068241     0.20000000
     0.23884514     0.53805774     0.10000000
     0.32020997     0.59580052     0.20000000
     0.29396325     0.58530183     0.10000000
     0.36745407     0.65091863     0.20000000
     0.34908136     0.63254593     0.10000000
     0.41469816     0.70603674     0.20000000
     0.40419947     0.67979002     0.10000000
     0.46194226     0.76115485     0.20000000
     0.45931759     0.72703412     0.10000000
     0.50918635     0.81627296     0.20000000
     0.51443570     0.77427821     0.10000000
     0.55643045     0.87139107     0.20000000
     0.56955381     0.82152231     0.10000000
     0.60367454     0.92650918     0.20000000
     0.62467192     0.86876640     0.10000000
     0.65091864     0.98162729     0.20000000
     0.67979003     0.91601050     0.10000000
     0.04461942     0.10761155     0.20000000
     0.73490814     0.96325459     0.10000000
     0.09186352     0.16272966     0.20000000
     0.06561680     0.24671916     0.10000000
     0.13910761     0.21784777     0.20000000
     0.12073491     0.29396325     0.10000000
     0.18635171     0.27296588     0.20000000
     0.17585302     0.34120735     0.10000000
     0.23359580     0.32808399     0.20000000
     0.23097113     0.38845144     0.10000000
     0.28083990     0.38320210     0.20000000
     0.28608924     0.43569554     0.10000000
     0.32808399     0.43832021     0.20000000
     0.34120735     0.48293963     0.10000000
     0.37532808     0.49343832     0.20000000
     0.39632546     0.53018372     0.10000000
     0.42257218     0.54855643     0.20000000
     0.45144357     0.57742782     0.10000000
     0.46981627     0.60367454     0.20000000
     0.50656168     0.62467191     0.10000000
     0.51706037     0.65879265     0.20000000
     0.56167979     0.67191601     0.10000000
     0.56430446     0.71391076     0.20000000
     0.61679790     0.71916010     0.10000000
     0.61154856     0.76902887     0.20000000
     0.67191601     0.76640420     0.10000000
     0.65879265     0.82414698     0.20000000
     0.72703412     0.81364829     0.10000000
     0.70603675     0.87926509     0.20000000
     0.78215223     0.86089239     0.10000000
     0.75328084     0.93438320     0.20000000
     0.83727034     0.90813648     0.10000000
     0.80052493     0.98950131     0.20000000
     0.89238845     0.95538057     0.10000000
     0.09973753     0.00524934     0.20000000
     0.05774278     0.09711286     0.10000000
     0.14698163     0.06036745     0.20000000
     0.11286089     0.14435695     0.10000000
     0.19422572     0.11548556     0.20000000
     0.16797900     0.19160105     0.10000000
     0.24146982     0.17060367     0.20000000
     0.22309711     0.23884514     0.10000000
     0.28871391     0.22572178     0.20000000
     0.27821522     0.28608924     0.10000000
     0.33595801     0.28083989     0.20000000
     0.33333333     0.33333333     0.10000000
     0.38320210     0.33595800     0.20000000
     0.38845144     0.38057742     0.10000000
     0.43044619     0.39107611     0.20000000
     0.44356955     0.42782152     0.10000000
     0.47769029     0.44619422     0.20000000
     0.49868766     0.47506561     0.10000000
     0.52493438     0.50131233     0.20000000
     0.55380577     0.52230971     0.10000000
     0.57217848     0.55643044     0.20000000
     0.60892388     0.56955380     0.10000000
     0.61942257     0.61154855     0.20000000
     0.66404199     0.61679790     0.10000000
     0.66666667     0.66666666     0.20000000
     0.71916010     0.66404199     0.10000000
     0.71391076     0.72178477     0.20000000
     0.77427822     0.71128609     0.10000000
     0.76115486     0.77690288     0.20000000
     0.82939633     0.75853018     0.10000000
     0.80839895     0.83202099     0.20000000
     0.88451444     0.80577428     0.10000000
     0.85564304     0.88713910     0.20000000
     0.93963255     0.85301837     0.10000000
     0.90288714     0.94225721     0.20000000
     0.99475066     0.90026246     0.10000000
     0.95013123     0.99737532     0.20000000
     0.16010499     0.04199475     0.10000000
     0.24934383     0.01312336     0.20000000
     0.21522310     0.08923884     0.10000000
     0.29658793     0.06824147     0.20000000
     0.27034121     0.13648294     0.10000000
     0.34383202     0.12335958     0.20000000
     0.32545932     0.18372703     0.10000000
     0.39107612     0.17847769     0.20000000
     0.38057743     0.23097113     0.10000000
     0.43832021     0.23359580     0.20000000
     0.43569554     0.27821522     0.10000000
     0.48556430     0.28871391     0.20000000
     0.49081365     0.32545931     0.10000000
     0.53280840     0.34383202     0.20000000
     0.54593176     0.37270341     0.10000000
     0.58005249     0.39895013     0.20000000
     0.60104987     0.41994750     0.10000000
     0.62729659     0.45406824     0.20000000
     0.65616798     0.46719160     0.10000000
     0.67454068     0.50918635     0.20000000
     0.71128609     0.51443569     0.10000000
     0.72178478     0.56430446     0.20000000
     0.76640420     0.56167979     0.10000000
     0.76902887     0.61942257     0.20000000
     0.82152231     0.60892388     0.10000000
     0.81627297     0.67454068     0.20000000
     0.87664042     0.65616798     0.10000000
     0.86351706     0.72965879     0.20000000
     0.93175853     0.70341207     0.10000000
     0.91076116     0.78477690     0.20000000
     0.98687664     0.75065616     0.10000000
     0.95800525     0.83989501     0.20000000
     0.31758530     0.03412073     0.10000000
     0.00524934     0.89501312     0.20000000
     0.37270341     0.08136483     0.10000000
     0.39895013     0.02099737     0.20000000
     0.42782152     0.12860892     0.10000000
     0.44619423     0.07611548     0.20000000
     0.48293963     0.17585302     0.10000000
     0.49343832     0.13123359     0.20000000
     0.53805774     0.22309711     0.10000000
     0.54068241     0.18635170     0.20000000
     0.59317585     0.27034120     0.10000000
     0.58792651     0.24146981     0.20000000
     0.64829396     0.31758530     0.10000000
     0.63517060     0.29658792     0.20000000
     0.70341207     0.36482939     0.10000000
     0.68241470     0.35170603     0.20000000
     0.75853018     0.41207349     0.10000000
     0.72965879     0.40682414     0.20000000
     0.81364829     0.45931758     0.10000000
     0.77690289     0.46194225     0.20000000
     0.86876640     0.50656168     0.10000000
     0.82414698     0.51706036     0.20000000
     0.92388451     0.55380577     0.10000000
     0.87139108     0.57217847     0.20000000
     0.97900262     0.60104987     0.10000000
     0.91863517     0.62729658     0.20000000
     0.47506562     0.02624672     0.10000000
     0.96587927     0.68241470     0.20000000
     0.53018373     0.07349081     0.10000000
     0.01312336     0.73753281     0.20000000
     0.58530184     0.12073491     0.10000000
     0.54855643     0.02887139     0.20000000
     0.64041995     0.16797900     0.10000000
     0.59580053     0.08398950     0.20000000
     0.69553806     0.21522309     0.10000000
     0.64304462     0.13910761     0.20000000
     0.75065617     0.26246719     0.10000000
     0.69028871     0.19422572     0.20000000
     0.80577428     0.30971128     0.10000000
     0.73753281     0.24934383     0.20000000
     0.86089239     0.35695538     0.10000000
     0.78477690     0.30446194     0.20000000
     0.91601050     0.40419947     0.10000000
     0.83202100     0.35958005     0.20000000
     0.97112861     0.45144357     0.10000000
     0.87926509     0.41469816     0.20000000
     0.63254593     0.01837270     0.10000000
     0.92650919     0.46981627     0.20000000
     0.68766404     0.06561679     0.10000000
     0.97375328     0.52493438     0.20000000
     0.74278215     0.11286089     0.10000000
     0.02099738     0.58005249     0.20000000
     0.79790026     0.16010498     0.10000000
     0.69816273     0.03674540     0.20000000
     0.85301837     0.20734908     0.10000000
     0.74540682     0.09186351     0.20000000
     0.90813648     0.25459317     0.10000000
     0.79265092     0.14698162     0.20000000
     0.96325459     0.30183727     0.10000000
     0.83989501     0.20209973     0.20000000
     0.01837270     0.34908136     0.10000000
     0.88713911     0.25721784     0.20000000
     0.79002625     0.01049868     0.10000000
     0.93438320     0.31233595     0.20000000
     0.84514436     0.05774278     0.10000000
     0.98162730     0.36745407     0.20000000
     0.90026247     0.10498687     0.10000000
     0.84776903     0.04461942     0.20000000
     0.95538058     0.15223097     0.10000000
     0.89501312     0.09973753     0.20000000
     0.01049869     0.19947506     0.10000000
     0.94225722     0.15485564     0.20000000
     0.94750656     0.00262467     0.10000000
     0.98950131     0.20997375     0.20000000
     0.00262467     0.04986876     0.10000000
     0.99737533     0.05249344     0.20000000
