python TBG.py -m 30 -n 31 -z 20.000000 -d 1.600000 -p 0.0,0.0 # theta=0.018929
    1.0
     112.28145027     66.25046161     0.00000000
    -1.23385337     130.36381156     0.00000000
     0.00000000     0.00000000     20.00000000
    C
    11164
Direct
     0.98889287     0.98925116     0.10000000
     0.98925116     0.98889287     0.18000000
     0.00000000     0.00000000     0.10000000
     0.98960946     0.95592977     0.18000000
     0.98853458     0.95664636     0.10000000
     0.00035829     0.96703690     0.18000000
     0.99964171     0.96739520     0.10000000
     0.01110713     0.97814403     0.18000000
     0.01074884     0.97814403     0.10000000
     0.02185597     0.98925116     0.18000000
     0.02185597     0.98889287     0.10000000
     0.98996775     0.92296668     0.18000000
     0.03296310     0.99964171     0.10000000
     0.00071659     0.93407381     0.18000000
     0.98817628     0.92404156     0.10000000
     0.01146542     0.94518094     0.18000000
     0.99928341     0.93479040     0.10000000
     0.02221426     0.95628807     0.18000000
     0.01039054     0.94553923     0.10000000
     0.03296310     0.96739520     0.18000000
     0.02149767     0.95628807     0.10000000
     0.04371193     0.97850233     0.18000000
     0.03260480     0.96703690     0.10000000
     0.05446077     0.98960946     0.18000000
     0.04371193     0.97778574     0.10000000
     0.99032605     0.89000358     0.18000000
     0.05481906     0.98853458     0.10000000
     0.00107488     0.90111071     0.18000000
     0.06592619     0.99928341     0.10000000
     0.01182372     0.91221784     0.18000000
     0.98781799     0.89143676     0.10000000
     0.02257255     0.92332497     0.18000000
     0.99892512     0.90218560     0.10000000
     0.03332139     0.93443210     0.18000000
     0.01003225     0.91293443     0.10000000
     0.04407023     0.94553923     0.18000000
     0.02113938     0.92368327     0.10000000
     0.05481906     0.95664636     0.18000000
     0.03224651     0.93443210     0.10000000
     0.06556790     0.96775349     0.18000000
     0.04335364     0.94518094     0.10000000
     0.07631673     0.97886062     0.18000000
     0.05446077     0.95592977     0.10000000
     0.08706557     0.98996775     0.18000000
     0.06556790     0.96667861     0.10000000
     0.99068434     0.85704049     0.18000000
     0.07667503     0.97742745     0.10000000
     0.00143318     0.86814762     0.18000000
     0.08778216     0.98817628     0.10000000
     0.01218201     0.87925475     0.18000000
     0.09888929     0.99892512     0.10000000
     0.02293085     0.89036188     0.18000000
     0.98745969     0.85883196     0.10000000
     0.03367968     0.90146901     0.18000000
     0.99856682     0.86958080     0.10000000
     0.04442852     0.91257614     0.18000000
     0.00967395     0.88032963     0.10000000
     0.05517736     0.92368327     0.18000000
     0.02078108     0.89107847     0.10000000
     0.06592619     0.93479040     0.18000000
     0.03188821     0.90182730     0.10000000
     0.07667503     0.94589753     0.18000000
     0.04299534     0.91257614     0.10000000
     0.08742386     0.95700466     0.18000000
     0.05410247     0.92332497     0.10000000
     0.09817270     0.96811179     0.18000000
     0.06520960     0.93407381     0.10000000
     0.10892153     0.97921892     0.18000000
     0.07631673     0.94482264     0.10000000
     0.11967037     0.99032605     0.18000000
     0.08742386     0.95557148     0.10000000
     0.99104264     0.82407739     0.18000000
     0.09853099     0.96632032     0.10000000
     0.00179147     0.83518452     0.18000000
     0.10963812     0.97706915     0.10000000
     0.01254031     0.84629165     0.18000000
     0.12074525     0.98781799     0.10000000
     0.02328914     0.85739878     0.18000000
     0.13185238     0.99856682     0.10000000
     0.03403798     0.86850591     0.18000000
     0.98710140     0.82622716     0.10000000
     0.04478681     0.87961304     0.18000000
     0.99820853     0.83697599     0.10000000
     0.05553565     0.89072017     0.18000000
     0.00931566     0.84772483     0.10000000
     0.06628449     0.90182730     0.18000000
     0.02042279     0.85847367     0.10000000
     0.07703332     0.91293443     0.18000000
     0.03152992     0.86922250     0.10000000
     0.08778216     0.92404156     0.18000000
     0.04263705     0.87997134     0.10000000
     0.09853099     0.93514869     0.18000000
     0.05374418     0.89072017     0.10000000
     0.10927983     0.94625582     0.18000000
     0.06485131     0.90146901     0.10000000
     0.12002866     0.95736295     0.18000000
     0.07595844     0.91221784     0.10000000
     0.13077750     0.96847008     0.18000000
     0.08706557     0.92296668     0.10000000
     0.14152633     0.97957721     0.18000000
     0.09817270     0.93371551     0.10000000
     0.15227517     0.99068434     0.18000000
     0.10927983     0.94446435     0.10000000
     0.99140093     0.79111430     0.18000000
     0.12038696     0.95521319     0.10000000
     0.00214977     0.80222143     0.18000000
     0.13149409     0.96596202     0.10000000
     0.01289860     0.81332856     0.18000000
     0.14260122     0.97671086     0.10000000
     0.02364744     0.82443569     0.18000000
     0.15370835     0.98745969     0.10000000
     0.03439627     0.83554282     0.18000000
     0.16481548     0.99820853     0.10000000
     0.04514511     0.84664995     0.18000000
     0.98674310     0.79362236     0.10000000
     0.05589394     0.85775708     0.18000000
     0.99785023     0.80437119     0.10000000
     0.06664278     0.86886421     0.18000000
     0.00895736     0.81512003     0.10000000
     0.07739162     0.87997134     0.18000000
     0.02006449     0.82586886     0.10000000
     0.08814045     0.89107847     0.18000000
     0.03117162     0.83661770     0.10000000
     0.09888929     0.90218560     0.18000000
     0.04227875     0.84736654     0.10000000
     0.10963812     0.91329273     0.18000000
     0.05338588     0.85811537     0.10000000
     0.12038696     0.92439986     0.18000000
     0.06449301     0.86886421     0.10000000
     0.13113579     0.93550699     0.18000000
     0.07560014     0.87961304     0.10000000
     0.14188463     0.94661412     0.18000000
     0.08670727     0.89036188     0.10000000
     0.15263346     0.95772125     0.18000000
     0.09781440     0.90111071     0.10000000
     0.16338230     0.96882838     0.18000000
     0.10892153     0.91185955     0.10000000
     0.17413114     0.97993551     0.18000000
     0.12002866     0.92260838     0.10000000
     0.18487997     0.99104264     0.18000000
     0.13113579     0.93335722     0.10000000
     0.99175923     0.75815120     0.18000000
     0.14224292     0.94410606     0.10000000
     0.00250806     0.76925833     0.18000000
     0.15335005     0.95485489     0.10000000
     0.01325690     0.78036546     0.18000000
     0.16445718     0.96560373     0.10000000
     0.02400573     0.79147259     0.18000000
     0.17556431     0.97635256     0.10000000
     0.03475457     0.80257972     0.18000000
     0.18667144     0.98710140     0.10000000
     0.04550340     0.81368685     0.18000000
     0.19777857     0.99785023     0.10000000
     0.05625224     0.82479398     0.18000000
     0.98638481     0.76101756     0.10000000
     0.06700107     0.83590111     0.18000000
     0.99749194     0.77176639     0.10000000
     0.07774991     0.84700824     0.18000000
     0.00859907     0.78251523     0.10000000
     0.08849875     0.85811537     0.18000000
     0.01970620     0.79326406     0.10000000
     0.09924758     0.86922250     0.18000000
     0.03081333     0.80401290     0.10000000
     0.10999642     0.88032963     0.18000000
     0.04192046     0.81476173     0.10000000
     0.12074525     0.89143676     0.18000000
     0.05302759     0.82551057     0.10000000
     0.13149409     0.90254389     0.18000000
     0.06413472     0.83625941     0.10000000
     0.14224292     0.91365102     0.18000000
     0.07524185     0.84700824     0.10000000
     0.15299176     0.92475815     0.18000000
     0.08634898     0.85775708     0.10000000
     0.16374059     0.93586528     0.18000000
     0.09745611     0.86850591     0.10000000
     0.17448943     0.94697241     0.18000000
     0.10856324     0.87925475     0.10000000
     0.18523827     0.95807954     0.18000000
     0.11967037     0.89000358     0.10000000
     0.19598710     0.96918667     0.18000000
     0.13077750     0.90075242     0.10000000
     0.20673594     0.98029380     0.18000000
     0.14188463     0.91150125     0.10000000
     0.21748477     0.99140093     0.18000000
     0.15299176     0.92225009     0.10000000
     0.99211752     0.72518810     0.18000000
     0.16409889     0.93299893     0.10000000
     0.00286636     0.73629523     0.18000000
     0.17520602     0.94374776     0.10000000
     0.01361519     0.74740236     0.18000000
     0.18631315     0.95449660     0.10000000
     0.02436403     0.75850949     0.18000000
     0.19742028     0.96524543     0.10000000
     0.03511286     0.76961662     0.18000000
     0.20852741     0.97599427     0.10000000
     0.04586170     0.78072375     0.18000000
     0.21963454     0.98674310     0.10000000
     0.05661053     0.79183088     0.18000000
     0.23074167     0.99749194     0.10000000
     0.06735937     0.80293802     0.18000000
     0.98602651     0.72841276     0.10000000
     0.07810820     0.81404515     0.18000000
     0.99713364     0.73916159     0.10000000
     0.08885704     0.82515228     0.18000000
     0.00824077     0.74991043     0.10000000
     0.09960588     0.83625941     0.18000000
     0.01934790     0.76065926     0.10000000
     0.11035471     0.84736654     0.18000000
     0.03045503     0.77140810     0.10000000
     0.12110355     0.85847367     0.18000000
     0.04156216     0.78215693     0.10000000
     0.13185238     0.86958080     0.18000000
     0.05266929     0.79290577     0.10000000
     0.14260122     0.88068793     0.18000000
     0.06377642     0.80365460     0.10000000
     0.15335005     0.89179506     0.18000000
     0.07488355     0.81440344     0.10000000
     0.16409889     0.90290219     0.18000000
     0.08599068     0.82515228     0.10000000
     0.17484772     0.91400932     0.18000000
     0.09709781     0.83590111     0.10000000
     0.18559656     0.92511645     0.18000000
     0.10820494     0.84664995     0.10000000
     0.19634540     0.93622358     0.18000000
     0.11931207     0.85739878     0.10000000
     0.20709423     0.94733071     0.18000000
     0.13041920     0.86814762     0.10000000
     0.21784307     0.95843784     0.18000000
     0.14152633     0.87889645     0.10000000
     0.22859190     0.96954497     0.18000000
     0.15263346     0.88964529     0.10000000
     0.23934074     0.98065210     0.18000000
     0.16374059     0.90039412     0.10000000
     0.25008957     0.99175923     0.18000000
     0.17484772     0.91114296     0.10000000
     0.99247582     0.69222501     0.18000000
     0.18595485     0.92189180     0.10000000
     0.00322465     0.70333214     0.18000000
     0.19706198     0.93264063     0.10000000
     0.01397349     0.71443927     0.18000000
     0.20816912     0.94338947     0.10000000
     0.02472232     0.72554640     0.18000000
     0.21927625     0.95413830     0.10000000
     0.03547116     0.73665353     0.18000000
     0.23038338     0.96488714     0.10000000
     0.04621999     0.74776066     0.18000000
     0.24149051     0.97563597     0.10000000
     0.05696883     0.75886779     0.18000000
     0.25259764     0.98638481     0.10000000
     0.06771766     0.76997492     0.18000000
     0.26370477     0.99713364     0.10000000
     0.07846650     0.78108205     0.18000000
     0.98566822     0.69580795     0.10000000
     0.08921534     0.79218918     0.18000000
     0.99677535     0.70655679     0.10000000
     0.09996417     0.80329631     0.18000000
     0.00788248     0.71730563     0.10000000
     0.11071301     0.81440344     0.18000000
     0.01898961     0.72805446     0.10000000
     0.12146184     0.82551057     0.18000000
     0.03009674     0.73880330     0.10000000
     0.13221068     0.83661770     0.18000000
     0.04120387     0.74955213     0.10000000
     0.14295951     0.84772483     0.18000000
     0.05231100     0.76030097     0.10000000
     0.15370835     0.85883196     0.18000000
     0.06341813     0.77104980     0.10000000
     0.16445718     0.86993909     0.18000000
     0.07452526     0.78179864     0.10000000
     0.17520602     0.88104622     0.18000000
     0.08563239     0.79254747     0.10000000
     0.18595485     0.89215335     0.18000000
     0.09673952     0.80329631     0.10000000
     0.19670369     0.90326048     0.18000000
     0.10784665     0.81404515     0.10000000
     0.20745253     0.91436761     0.18000000
     0.11895378     0.82479398     0.10000000
     0.21820136     0.92547474     0.18000000
     0.13006091     0.83554282     0.10000000
     0.22895020     0.93658187     0.18000000
     0.14116804     0.84629165     0.10000000
     0.23969903     0.94768900     0.18000000
     0.15227517     0.85704049     0.10000000
     0.25044787     0.95879613     0.18000000
     0.16338230     0.86778932     0.10000000
     0.26119670     0.96990326     0.18000000
     0.17448943     0.87853816     0.10000000
     0.27194554     0.98101039     0.18000000
     0.18559656     0.88928699     0.10000000
     0.28269437     0.99211752     0.18000000
     0.19670369     0.90003583     0.10000000
     0.99283411     0.65926191     0.18000000
     0.20781082     0.91078466     0.10000000
     0.00358295     0.67036904     0.18000000
     0.21891795     0.92153350     0.10000000
     0.01433178     0.68147617     0.18000000
     0.23002508     0.93228234     0.10000000
     0.02508062     0.69258330     0.18000000
     0.24113221     0.94303117     0.10000000
     0.03582945     0.70369043     0.18000000
     0.25223934     0.95378001     0.10000000
     0.04657829     0.71479756     0.18000000
     0.26334647     0.96452884     0.10000000
     0.05732712     0.72590469     0.18000000
     0.27445360     0.97527768     0.10000000
     0.06807596     0.73701182     0.18000000
     0.28556073     0.98602651     0.10000000
     0.07882479     0.74811895     0.18000000
     0.29666786     0.99677535     0.10000000
     0.08957363     0.75922608     0.18000000
     0.98530992     0.66320315     0.10000000
     0.10032247     0.77033321     0.18000000
     0.99641705     0.67395199     0.10000000
     0.11107130     0.78144034     0.18000000
     0.00752418     0.68470082     0.10000000
     0.12182014     0.79254747     0.18000000
     0.01863131     0.69544966     0.10000000
     0.13256897     0.80365460     0.18000000
     0.02973845     0.70619850     0.10000000
     0.14331781     0.81476173     0.18000000
     0.04084558     0.71694733     0.10000000
     0.15406664     0.82586886     0.18000000
     0.05195271     0.72769617     0.10000000
     0.16481548     0.83697599     0.18000000
     0.06305984     0.73844500     0.10000000
     0.17556431     0.84808312     0.18000000
     0.07416697     0.74919384     0.10000000
     0.18631315     0.85919025     0.18000000
     0.08527410     0.75994267     0.10000000
     0.19706198     0.87029738     0.18000000
     0.09638123     0.77069151     0.10000000
     0.20781082     0.88140451     0.18000000
     0.10748836     0.78144034     0.10000000
     0.21855966     0.89251164     0.18000000
     0.11859549     0.79218918     0.10000000
     0.22930849     0.90361877     0.18000000
     0.12970262     0.80293802     0.10000000
     0.24005733     0.91472590     0.18000000
     0.14080975     0.81368685     0.10000000
     0.25080616     0.92583303     0.18000000
     0.15191688     0.82443569     0.10000000
     0.26155500     0.93694016     0.18000000
     0.16302401     0.83518452     0.10000000
     0.27230383     0.94804729     0.18000000
     0.17413114     0.84593336     0.10000000
     0.28305267     0.95915442     0.18000000
     0.18523827     0.85668219     0.10000000
     0.29380150     0.97026155     0.18000000
     0.19634540     0.86743103     0.10000000
     0.30455034     0.98136869     0.18000000
     0.20745253     0.87817986     0.10000000
     0.31529918     0.99247582     0.18000000
     0.21855966     0.88892870     0.10000000
     0.99319240     0.62629882     0.18000000
     0.22966679     0.89967753     0.10000000
     0.00394124     0.63740595     0.18000000
     0.24077392     0.91042637     0.10000000
     0.01469008     0.64851308     0.18000000
     0.25188105     0.92117521     0.10000000
     0.02543891     0.65962021     0.18000000
     0.26298818     0.93192404     0.10000000
     0.03618775     0.67072734     0.18000000
     0.27409531     0.94267288     0.10000000
     0.04693658     0.68183447     0.18000000
     0.28520244     0.95342171     0.10000000
     0.05768542     0.69294160     0.18000000
     0.29630957     0.96417055     0.10000000
     0.06843425     0.70404873     0.18000000
     0.30741670     0.97491938     0.10000000
     0.07918309     0.71515586     0.18000000
     0.31852383     0.98566822     0.10000000
     0.08993192     0.72626299     0.18000000
     0.32963096     0.99641705     0.10000000
     0.10068076     0.73737012     0.18000000
     0.98495163     0.63059835     0.10000000
     0.11142960     0.74847725     0.18000000
     0.99605876     0.64134719     0.10000000
     0.12217843     0.75958438     0.18000000
     0.00716589     0.65209602     0.10000000
     0.13292727     0.77069151     0.18000000
     0.01827302     0.66284486     0.10000000
     0.14367610     0.78179864     0.18000000
     0.02938015     0.67359369     0.10000000
     0.15442494     0.79290577     0.18000000
     0.04048728     0.68434253     0.10000000
     0.16517377     0.80401290     0.18000000
     0.05159441     0.69509137     0.10000000
     0.17592261     0.81512003     0.18000000
     0.06270154     0.70584020     0.10000000
     0.18667144     0.82622716     0.18000000
     0.07380867     0.71658904     0.10000000
     0.19742028     0.83733429     0.18000000
     0.08491580     0.72733787     0.10000000
     0.20816912     0.84844142     0.18000000
     0.09602293     0.73808671     0.10000000
     0.21891795     0.85954855     0.18000000
     0.10713006     0.74883554     0.10000000
     0.22966679     0.87065568     0.18000000
     0.11823719     0.75958438     0.10000000
     0.24041562     0.88176281     0.18000000
     0.12934432     0.77033321     0.10000000
     0.25116446     0.89286994     0.18000000
     0.14045145     0.78108205     0.10000000
     0.26191329     0.90397707     0.18000000
     0.15155858     0.79183088     0.10000000
     0.27266213     0.91508420     0.18000000
     0.16266571     0.80257972     0.10000000
     0.28341096     0.92619133     0.18000000
     0.17377284     0.81332856     0.10000000
     0.29415980     0.93729846     0.18000000
     0.18487997     0.82407739     0.10000000
     0.30490863     0.94840559     0.18000000
     0.19598710     0.83482623     0.10000000
     0.31565747     0.95951272     0.18000000
     0.20709423     0.84557506     0.10000000
     0.32640631     0.97061985     0.18000000
     0.21820136     0.85632390     0.10000000
     0.33715514     0.98172698     0.18000000
     0.22930849     0.86707273     0.10000000
     0.34790398     0.99283411     0.18000000
     0.24041562     0.87782157     0.10000000
     0.99355070     0.59333572     0.18000000
     0.25152275     0.88857040     0.10000000
     0.00429953     0.60444285     0.18000000
     0.26262988     0.89931924     0.10000000
     0.01504837     0.61554998     0.18000000
     0.27373701     0.91006808     0.10000000
     0.02579721     0.62665711     0.18000000
     0.28484414     0.92081691     0.10000000
     0.03654604     0.63776424     0.18000000
     0.29595127     0.93156575     0.10000000
     0.04729488     0.64887137     0.18000000
     0.30705840     0.94231458     0.10000000
     0.05804371     0.65997850     0.18000000
     0.31816553     0.95306342     0.10000000
     0.06879255     0.67108563     0.18000000
     0.32927266     0.96381225     0.10000000
     0.07954138     0.68219276     0.18000000
     0.34037979     0.97456109     0.10000000
     0.09029022     0.69329989     0.18000000
     0.35148692     0.98530992     0.10000000
     0.10103905     0.70440702     0.18000000
     0.36259405     0.99605876     0.10000000
     0.11178789     0.71551415     0.18000000
     0.98459334     0.59799355     0.10000000
     0.12253673     0.72662128     0.18000000
     0.99570047     0.60874239     0.10000000
     0.13328556     0.73772841     0.18000000
     0.00680760     0.61949122     0.10000000
     0.14403440     0.74883554     0.18000000
     0.01791473     0.63024006     0.10000000
     0.15478323     0.75994267     0.18000000
     0.02902186     0.64098889     0.10000000
     0.16553207     0.77104980     0.18000000
     0.04012899     0.65173773     0.10000000
     0.17628090     0.78215693     0.18000000
     0.05123612     0.66248656     0.10000000
     0.18702974     0.79326406     0.18000000
     0.06234325     0.67323540     0.10000000
     0.19777857     0.80437119     0.18000000
     0.07345038     0.68398424     0.10000000
     0.20852741     0.81547832     0.18000000
     0.08455751     0.69473307     0.10000000
     0.21927625     0.82658545     0.18000000
     0.09566464     0.70548191     0.10000000
     0.23002508     0.83769258     0.18000000
     0.10677177     0.71623074     0.10000000
     0.24077392     0.84879971     0.18000000
     0.11787890     0.72697958     0.10000000
     0.25152275     0.85990684     0.18000000
     0.12898603     0.73772841     0.10000000
     0.26227159     0.87101397     0.18000000
     0.14009316     0.74847725     0.10000000
     0.27302042     0.88212110     0.18000000
     0.15120029     0.75922608     0.10000000
     0.28376926     0.89322823     0.18000000
     0.16230742     0.76997492     0.10000000
     0.29451809     0.90433536     0.18000000
     0.17341455     0.78072375     0.10000000
     0.30526693     0.91544249     0.18000000
     0.18452168     0.79147259     0.10000000
     0.31601576     0.92654962     0.18000000
     0.19562881     0.80222143     0.10000000
     0.32676460     0.93765675     0.18000000
     0.20673594     0.81297026     0.10000000
     0.33751344     0.94876388     0.18000000
     0.21784307     0.82371910     0.10000000
     0.34826227     0.95987101     0.18000000
     0.22895020     0.83446793     0.10000000
     0.35901111     0.97097814     0.18000000
     0.24005733     0.84521677     0.10000000
     0.36975994     0.98208527     0.18000000
     0.25116446     0.85596560     0.10000000
     0.38050878     0.99319240     0.18000000
     0.26227159     0.86671444     0.10000000
     0.99390899     0.56037263     0.18000000
     0.27337872     0.87746327     0.10000000
     0.00465783     0.57147976     0.18000000
     0.28448585     0.88821211     0.10000000
     0.01540666     0.58258689     0.18000000
     0.29559298     0.89896095     0.10000000
     0.02615550     0.59369402     0.18000000
     0.30670011     0.90970978     0.10000000
     0.03690434     0.60480115     0.18000000
     0.31780724     0.92045862     0.10000000
     0.04765317     0.61590828     0.18000000
     0.32891437     0.93120745     0.10000000
     0.05840201     0.62701541     0.18000000
     0.34002150     0.94195629     0.10000000
     0.06915084     0.63812254     0.18000000
     0.35112863     0.95270512     0.10000000
     0.07989968     0.64922967     0.18000000
     0.36223576     0.96345396     0.10000000
     0.09064851     0.66033680     0.18000000
     0.37334289     0.97420279     0.10000000
     0.10139735     0.67144393     0.18000000
     0.38445002     0.98495163     0.10000000
     0.11214618     0.68255106     0.18000000
     0.39555715     0.99570047     0.10000000
     0.12289502     0.69365819     0.18000000
     0.98423504     0.56538875     0.10000000
     0.13364386     0.70476532     0.18000000
     0.99534217     0.57613759     0.10000000
     0.14439269     0.71587245     0.18000000
     0.00644930     0.58688642     0.10000000
     0.15514153     0.72697958     0.18000000
     0.01755643     0.59763526     0.10000000
     0.16589036     0.73808671     0.18000000
     0.02866356     0.60838409     0.10000000
     0.17663920     0.74919384     0.18000000
     0.03977069     0.61913293     0.10000000
     0.18738803     0.76030097     0.18000000
     0.05087782     0.62988176     0.10000000
     0.19813687     0.77140810     0.18000000
     0.06198495     0.64063060     0.10000000
     0.20888570     0.78251523     0.18000000
     0.07309208     0.65137943     0.10000000
     0.21963454     0.79362236     0.18000000
     0.08419921     0.66212827     0.10000000
     0.23038338     0.80472949     0.18000000
     0.09530634     0.67287710     0.10000000
     0.24113221     0.81583662     0.18000000
     0.10641347     0.68362594     0.10000000
     0.25188105     0.82694375     0.18000000
     0.11752060     0.69437478     0.10000000
     0.26262988     0.83805088     0.18000000
     0.12862773     0.70512361     0.10000000
     0.27337872     0.84915801     0.18000000
     0.13973486     0.71587245     0.10000000
     0.28412755     0.86026514     0.18000000
     0.15084199     0.72662128     0.10000000
     0.29487639     0.87137227     0.18000000
     0.16194912     0.73737012     0.10000000
     0.30562522     0.88247940     0.18000000
     0.17305625     0.74811895     0.10000000
     0.31637406     0.89358653     0.18000000
     0.18416338     0.75886779     0.10000000
     0.32712290     0.90469366     0.18000000
     0.19527051     0.76961662     0.10000000
     0.33787173     0.91580079     0.18000000
     0.20637764     0.78036546     0.10000000
     0.34862057     0.92690792     0.18000000
     0.21748477     0.79111430     0.10000000
     0.35936940     0.93801505     0.18000000
     0.22859190     0.80186313     0.10000000
     0.37011824     0.94912218     0.18000000
     0.23969903     0.81261197     0.10000000
     0.38086707     0.96022931     0.18000000
     0.25080616     0.82336080     0.10000000
     0.39161591     0.97133644     0.18000000
     0.26191329     0.83410964     0.10000000
     0.40236474     0.98244357     0.18000000
     0.27302042     0.84485847     0.10000000
     0.41311358     0.99355070     0.18000000
     0.28412755     0.85560731     0.10000000
     0.99426729     0.52740953     0.18000000
     0.29523468     0.86635614     0.10000000
     0.00501612     0.53851666     0.18000000
     0.30634181     0.87710498     0.10000000
     0.01576496     0.54962379     0.18000000
     0.31744894     0.88785382     0.10000000
     0.02651379     0.56073092     0.18000000
     0.32855607     0.89860265     0.10000000
     0.03726263     0.57183805     0.18000000
     0.33966320     0.90935149     0.10000000
     0.04801147     0.58294518     0.18000000
     0.35077033     0.92010032     0.10000000
     0.05876030     0.59405231     0.18000000
     0.36187746     0.93084916     0.10000000
     0.06950914     0.60515944     0.18000000
     0.37298459     0.94159799     0.10000000
     0.08025797     0.61626657     0.18000000
     0.38409172     0.95234683     0.10000000
     0.09100681     0.62737370     0.18000000
     0.39519885     0.96309566     0.10000000
     0.10175564     0.63848083     0.18000000
     0.40630598     0.97384450     0.10000000
     0.11250448     0.64958796     0.18000000
     0.41741311     0.98459334     0.10000000
     0.12325331     0.66069509     0.18000000
     0.42852024     0.99534217     0.10000000
     0.13400215     0.67180222     0.18000000
     0.98387675     0.53278395     0.10000000
     0.14475099     0.68290935     0.18000000
     0.99498388     0.54353278     0.10000000
     0.15549982     0.69401648     0.18000000
     0.00609101     0.55428162     0.10000000
     0.16624866     0.70512361     0.18000000
     0.01719814     0.56503046     0.10000000
     0.17699749     0.71623074     0.18000000
     0.02830527     0.57577929     0.10000000
     0.18774633     0.72733787     0.18000000
     0.03941240     0.58652813     0.10000000
     0.19849516     0.73844500     0.18000000
     0.05051953     0.59727696     0.10000000
     0.20924400     0.74955213     0.18000000
     0.06162666     0.60802580     0.10000000
     0.21999283     0.76065926     0.18000000
     0.07273379     0.61877463     0.10000000
     0.23074167     0.77176639     0.18000000
     0.08384092     0.62952347     0.10000000
     0.24149051     0.78287352     0.18000000
     0.09494805     0.64027230     0.10000000
     0.25223934     0.79398065     0.18000000
     0.10605518     0.65102114     0.10000000
     0.26298818     0.80508778     0.18000000
     0.11716231     0.66176997     0.10000000
     0.27373701     0.81619491     0.18000000
     0.12826944     0.67251881     0.10000000
     0.28448585     0.82730204     0.18000000
     0.13937657     0.68326765     0.10000000
     0.29523468     0.83840917     0.18000000
     0.15048370     0.69401648     0.10000000
     0.30598352     0.84951630     0.18000000
     0.16159083     0.70476532     0.10000000
     0.31673235     0.86062343     0.18000000
     0.17269796     0.71551415     0.10000000
     0.32748119     0.87173056     0.18000000
     0.18380509     0.72626299     0.10000000
     0.33823003     0.88283769     0.18000000
     0.19491222     0.73701182     0.10000000
     0.34897886     0.89394482     0.18000000
     0.20601935     0.74776066     0.10000000
     0.35972770     0.90505195     0.18000000
     0.21712648     0.75850949     0.10000000
     0.37047653     0.91615908     0.18000000