python TBG.py -m 11 -n 12 -z 20.000000 -d 1.600000 -p 0.0,0.0 # theta=0.050194
    1.0
     41.95131115     25.64533998     0.00000000
    -1.23385877     49.15356829     0.00000000
     0.00000000     0.00000000     20.00000000
    C
    1588
Direct
     0.96977330     0.97229219     0.10000000
     0.97229219     0.96977330     0.18000000
     0.00000000     0.00000000     0.10000000
     0.97481108     0.88161209     0.18000000
     0.96725441     0.88664987     0.10000000
     0.00251889     0.91183879     0.18000000
     0.99748111     0.91435768     0.10000000
     0.03022670     0.94206549     0.18000000
     0.02770781     0.94206549     0.10000000
     0.05793451     0.97229219     0.18000000
     0.05793451     0.96977330     0.10000000
     0.97732997     0.79345088     0.18000000
     0.08816121     0.99748111     0.10000000
     0.00503778     0.82367758     0.18000000
     0.96473552     0.80100756     0.10000000
     0.03274559     0.85390428     0.18000000
     0.99496222     0.82871537     0.10000000
     0.06045340     0.88413098     0.18000000
     0.02518892     0.85642317     0.10000000
     0.08816121     0.91435768     0.18000000
     0.05541562     0.88413098     0.10000000
     0.11586902     0.94458438     0.18000000
     0.08564232     0.91183879     0.10000000
     0.14357683     0.97481108     0.18000000
     0.11586902     0.93954660     0.10000000
     0.97984887     0.70528967     0.18000000
     0.14609572     0.96725441     0.10000000
     0.00755668     0.73551637     0.18000000
     0.17632242     0.99496222     0.10000000
     0.03526448     0.76574307     0.18000000
     0.96221662     0.71536524     0.10000000
     0.06297229     0.79596977     0.18000000
     0.99244332     0.74307305     0.10000000
     0.09068010     0.82619647     0.18000000
     0.02267003     0.77078086     0.10000000
     0.11838791     0.85642317     0.18000000
     0.05289673     0.79848866     0.10000000
     0.14609572     0.88664987     0.18000000
     0.08312343     0.82619647     0.10000000
     0.17380353     0.91687657     0.18000000
     0.11335013     0.85390428     0.10000000
     0.20151134     0.94710327     0.18000000
     0.14357683     0.88161209     0.10000000
     0.22921914     0.97732997     0.18000000
     0.17380353     0.90931990     0.10000000
     0.98236776     0.61712846     0.18000000
     0.20403023     0.93702771     0.10000000
     0.01007557     0.64735516     0.18000000
     0.23425693     0.96473552     0.10000000
     0.03778338     0.67758186     0.18000000
     0.26448363     0.99244332     0.10000000
     0.06549118     0.70780856     0.18000000
     0.95969773     0.62972292     0.10000000
     0.09319899     0.73803526     0.18000000
     0.98992443     0.65743073     0.10000000
     0.12090680     0.76826196     0.18000000
     0.02015113     0.68513854     0.10000000
     0.14861461     0.79848866     0.18000000
     0.05037783     0.71284635     0.10000000
     0.17632242     0.82871537     0.18000000
     0.08060453     0.74055416     0.10000000
     0.20403023     0.85894207     0.18000000
     0.11083123     0.76826196     0.10000000
     0.23173804     0.88916877     0.18000000
     0.14105793     0.79596977     0.10000000
     0.25944584     0.91939547     0.18000000
     0.17128463     0.82367758     0.10000000
     0.28715365     0.94962217     0.18000000
     0.20151134     0.85138539     0.10000000
     0.31486146     0.97984887     0.18000000
     0.23173804     0.87909320     0.10000000
     0.95717884     0.49874055     0.18000000
     0.26196474     0.90680101     0.10000000
     0.98488665     0.52896725     0.18000000
     0.29219144     0.93450882     0.10000000
     0.01259446     0.55919395     0.18000000
     0.32241814     0.96221662     0.10000000
     0.04030227     0.58942065     0.18000000
     0.35264484     0.98992443     0.10000000
     0.06801008     0.61964736     0.18000000
     0.95717884     0.54408060     0.10000000
     0.09571788     0.64987406     0.18000000
     0.98740554     0.57178841     0.10000000
     0.12342569     0.68010076     0.18000000
     0.01763224     0.59949622     0.10000000
     0.15113350     0.71032746     0.18000000
     0.04785894     0.62720403     0.10000000
     0.17884131     0.74055416     0.18000000
     0.07808564     0.65491184     0.10000000
     0.20654912     0.77078086     0.18000000
     0.10831234     0.68261965     0.10000000
     0.23425693     0.80100756     0.18000000
     0.13853904     0.71032746     0.10000000
     0.26196474     0.83123426     0.18000000
     0.16876574     0.73803526     0.10000000
     0.28967254     0.86146096     0.18000000
     0.19899244     0.76574307     0.10000000
     0.31738035     0.89168766     0.18000000
     0.22921914     0.79345088     0.10000000
     0.34508816     0.92191436     0.18000000
     0.25944584     0.82115869     0.10000000
     0.37279597     0.95214106     0.18000000
     0.28967254     0.84886650     0.10000000
     0.40050378     0.98236776     0.18000000
     0.31989924     0.87657431     0.10000000
     0.95969773     0.41057935     0.18000000
     0.35012594     0.90428212     0.10000000
     0.98740554     0.44080605     0.18000000
     0.38035264     0.93198992     0.10000000
     0.01511335     0.47103275     0.18000000
     0.41057935     0.95969773     0.10000000
     0.04282116     0.50125945     0.18000000
     0.44080605     0.98740554     0.10000000
     0.07052897     0.53148615     0.18000000
     0.98488665     0.48614610     0.10000000
     0.09823678     0.56171285     0.18000000
     0.01511335     0.51385390     0.10000000
     0.12594458     0.59193955     0.18000000
     0.04534005     0.54156171     0.10000000
     0.15365239     0.62216625     0.18000000
     0.07556675     0.56926952     0.10000000
     0.18136020     0.65239295     0.18000000
     0.10579345     0.59697733     0.10000000
     0.20906801     0.68261965     0.18000000
     0.13602015     0.62468514     0.10000000
     0.23677582     0.71284635     0.18000000
     0.16624685     0.65239295     0.10000000
     0.26448363     0.74307305     0.18000000
     0.19647355     0.68010076     0.10000000
     0.29219144     0.77329975     0.18000000
     0.22670025     0.70780856     0.10000000
     0.31989924     0.80352645     0.18000000
     0.25692695     0.73551637     0.10000000
     0.34760705     0.83375315     0.18000000
     0.28715365     0.76322418     0.10000000
     0.37531486     0.86397985     0.18000000
     0.31738035     0.79093199     0.10000000
     0.40302267     0.89420655     0.18000000
     0.34760705     0.81863980     0.10000000
     0.43073048     0.92443325     0.18000000
     0.37783375     0.84634761     0.10000000
     0.45843829     0.95465995     0.18000000
     0.40806045     0.87405542     0.10000000
     0.48614610     0.98488665     0.18000000
     0.43828715     0.90176322     0.10000000
     0.96221662     0.32241814     0.18000000
     0.46851385     0.92947103     0.10000000
     0.98992443     0.35264484     0.18000000
     0.49874055     0.95717884     0.10000000
     0.01763224     0.38287154     0.18000000
     0.52896725     0.98488665     0.10000000
     0.04534005     0.41309824     0.18000000
     0.98236776     0.40050378     0.10000000
     0.07304786     0.44332494     0.18000000
     0.01259446     0.42821159     0.10000000
     0.10075567     0.47355164     0.18000000
     0.04282116     0.45591940     0.10000000
     0.12846348     0.50377834     0.18000000
     0.07304786     0.48362720     0.10000000
     0.15617128     0.53400504     0.18000000
     0.10327456     0.51133501     0.10000000
     0.18387909     0.56423174     0.18000000
     0.13350126     0.53904282     0.10000000
     0.21158690     0.59445844     0.18000000
     0.16372796     0.56675063     0.10000000
     0.23929471     0.62468514     0.18000000
     0.19395466     0.59445844     0.10000000
     0.26700252     0.65491184     0.18000000
     0.22418136     0.62216625     0.10000000
     0.29471033     0.68513854     0.18000000
     0.25440806     0.64987406     0.10000000
     0.32241814     0.71536524     0.18000000
     0.28463476     0.67758186     0.10000000
     0.35012594     0.74559194     0.18000000
     0.31486146     0.70528967     0.10000000
     0.37783375     0.77581864     0.18000000
     0.34508816     0.73299748     0.10000000
     0.40554156     0.80604534     0.18000000
     0.37531486     0.76070529     0.10000000
     0.43324937     0.83627204     0.18000000
     0.40554156     0.78841310     0.10000000
     0.46095718     0.86649874     0.18000000
     0.43576826     0.81612091     0.10000000
     0.48866499     0.89672544     0.18000000
     0.46599496     0.84382872     0.10000000
     0.51637280     0.92695214     0.18000000
     0.49622166     0.87153652     0.10000000
     0.54408060     0.95717884     0.18000000
     0.52644836     0.89924433     0.10000000
     0.57178841     0.98740554     0.18000000
     0.55667506     0.92695214     0.10000000
     0.96473552     0.23425693     0.18000000
     0.58690176     0.95465995     0.10000000
     0.99244332     0.26448363     0.18000000
     0.61712846     0.98236776     0.10000000
     0.02015113     0.29471033     0.18000000
     0.97984887     0.31486146     0.10000000
     0.04785894     0.32493703     0.18000000
     0.01007557     0.34256927     0.10000000
     0.07556675     0.35516373     0.18000000
     0.04030227     0.37027708     0.10000000
     0.10327456     0.38539043     0.18000000
     0.07052897     0.39798489     0.10000000
     0.13098237     0.41561713     0.18000000
     0.10075567     0.42569270     0.10000000
     0.15869018     0.44584383     0.18000000
     0.13098237     0.45340050     0.10000000
     0.18639798     0.47607053     0.18000000
     0.16120907     0.48110831     0.10000000
     0.21410579     0.50629723     0.18000000
     0.19143577     0.50881612     0.10000000
     0.24181360     0.53652393     0.18000000
     0.22166247     0.53652393     0.10000000
     0.26952141     0.56675063     0.18000000
     0.25188917     0.56423174     0.10000000
     0.29722922     0.59697733     0.18000000
     0.28211587     0.59193955     0.10000000
     0.32493703     0.62720403     0.18000000
     0.31234257     0.61964736     0.10000000
     0.35264484     0.65743073     0.18000000
     0.34256927     0.64735516     0.10000000
     0.38035264     0.68765743     0.18000000
     0.37279597     0.67506297     0.10000000
     0.40806045     0.71788413     0.18000000
     0.40302267     0.70277078     0.10000000
     0.43576826     0.74811083     0.18000000
     0.43324937     0.73047859     0.10000000
     0.46347607     0.77833753     0.18000000
     0.46347607     0.75818640     0.10000000
     0.49118388     0.80856423     0.18000000
     0.49370277     0.78589421     0.10000000
     0.51889169     0.83879093     0.18000000
     0.52392947     0.81360202     0.10000000
     0.54659950     0.86901763     0.18000000
     0.55415617     0.84130982     0.10000000
     0.57430730     0.89924433     0.18000000
     0.58438287     0.86901763     0.10000000
     0.60201511     0.92947103     0.18000000
     0.61460957     0.89672544     0.10000000
     0.62972292     0.95969773     0.18000000
     0.64483627     0.92443325     0.10000000
     0.65743073     0.98992443     0.18000000
     0.67506297     0.95214106     0.10000000
     0.96725441     0.14609572     0.18000000
     0.70528967     0.97984887     0.10000000
     0.99496222     0.17632242     0.18000000
     0.97732997     0.22921914     0.10000000
     0.02267003     0.20654912     0.18000000
     0.00755668     0.25692695     0.10000000
     0.05037783     0.23677582     0.18000000
     0.03778338     0.28463476     0.10000000
     0.07808564     0.26700252     0.18000000
     0.06801008     0.31234257     0.10000000
     0.10579345     0.29722922     0.18000000
     0.09823678     0.34005038     0.10000000
     0.13350126     0.32745592     0.18000000
     0.12846348     0.36775819     0.10000000
     0.16120907     0.35768262     0.18000000
     0.15869018     0.39546599     0.10000000
     0.18891688     0.38790932     0.18000000
     0.18891688     0.42317380     0.10000000
     0.21662469     0.41813602     0.18000000
     0.21914358     0.45088161     0.10000000
     0.24433249     0.44836272     0.18000000
     0.24937028     0.47858942     0.10000000
     0.27204030     0.47858942     0.18000000
     0.27959698     0.50629723     0.10000000
     0.29974811     0.50881612     0.18000000
     0.30982368     0.53400504     0.10000000
     0.32745592     0.53904282     0.18000000
     0.34005038     0.56171285     0.10000000
     0.35516373     0.56926952     0.18000000
     0.37027708     0.58942065     0.10000000
     0.38287154     0.59949622     0.18000000
     0.40050378     0.61712846     0.10000000
     0.41057935     0.62972292     0.18000000
     0.43073048     0.64483627     0.10000000
     0.43828715     0.65994962     0.18000000
     0.46095718     0.67254408     0.10000000
     0.46599496     0.69017632     0.18000000
     0.49118388     0.70025189     0.10000000
     0.49370277     0.72040302     0.18000000
     0.52141058     0.72795970     0.10000000
     0.52141058     0.75062972     0.18000000
     0.55163728     0.75566751     0.10000000
     0.54911839     0.78085642     0.18000000
     0.58186398     0.78337531     0.10000000
     0.57682620     0.81108312     0.18000000
     0.61209068     0.81108312     0.10000000
     0.60453401     0.84130982     0.18000000
     0.64231738     0.83879093     0.10000000
     0.63224181     0.87153652     0.18000000
     0.67254408     0.86649874     0.10000000
     0.65994962     0.90176322     0.18000000
     0.70277078     0.89420655     0.10000000
     0.68765743     0.93198992     0.18000000
     0.73299748     0.92191436     0.10000000
     0.71536524     0.96221662     0.18000000
     0.76322418     0.94962217     0.10000000
     0.74307305     0.99244332     0.18000000
     0.79345088     0.97732997     0.10000000
     0.96977330     0.05793451     0.18000000
     0.97481108     0.14357683     0.10000000
     0.99748111     0.08816121     0.18000000
     0.00503778     0.17128463     0.10000000
     0.02518892     0.11838791     0.18000000
     0.03526448     0.19899244     0.10000000
     0.05289673     0.14861461     0.18000000
     0.06549118     0.22670025     0.10000000
     0.08060453     0.17884131     0.18000000
     0.09571788     0.25440806     0.10000000
     0.10831234     0.20906801     0.18000000
     0.12594458     0.28211587     0.10000000
     0.13602015     0.23929471     0.18000000
     0.15617128     0.30982368     0.10000000
     0.16372796     0.26952141     0.18000000
     0.18639798     0.33753149     0.10000000
     0.19143577     0.29974811     0.18000000
     0.21662469     0.36523929     0.10000000
     0.21914358     0.32997481     0.18000000
     0.24685139     0.39294710     0.10000000
     0.24685139     0.36020151     0.18000000
     0.27707809     0.42065491     0.10000000
     0.27455919     0.39042821     0.18000000
     0.30730479     0.44836272     0.10000000
     0.30226700     0.42065491     0.18000000
     0.33753149     0.47607053     0.10000000
     0.32997481     0.45088161     0.18000000
     0.36775819     0.50377834     0.10000000
     0.35768262     0.48110831     0.18000000
     0.39798489     0.53148615     0.10000000
     0.38539043     0.51133501     0.18000000
     0.42821159     0.55919395     0.10000000
     0.41309824     0.54156171     0.18000000
     0.45843829     0.58690176     0.10000000
     0.44080605     0.57178841     0.18000000
     0.48866499     0.61460957     0.10000000
     0.46851385     0.60201511     0.18000000
     0.51889169     0.64231738     0.10000000
     0.49622166     0.63224181     0.18000000
     0.54911839     0.67002519     0.10000000
     0.52392947     0.66246851     0.18000000
     0.57934509     0.69773300     0.10000000
     0.55163728     0.69269521     0.18000000
     0.60957179     0.72544081     0.10000000
     0.57934509     0.72292191     0.18000000
     0.63979849     0.75314861     0.10000000
     0.60705290     0.75314861     0.18000000
     0.67002519     0.78085642     0.10000000
     0.63476071     0.78337531     0.18000000
     0.70025189     0.80856423     0.10000000
     0.66246851     0.81360202     0.18000000
     0.73047859     0.83627204     0.10000000
     0.69017632     0.84382872     0.18000000
     0.76070529     0.86397985     0.10000000
     0.71788413     0.87405542     0.18000000
     0.79093199     0.89168766     0.10000000
     0.74559194     0.90428212     0.18000000
     0.82115869     0.91939547     0.10000000
     0.77329975     0.93450882     0.18000000
     0.85138539     0.94710327     0.10000000
     0.80100756     0.96473552     0.18000000
     0.88161209     0.97481108     0.10000000
     0.82871537     0.99496222     0.18000000
     0.97229219     0.05793451     0.10000000
     0.00000000     0.00000000     0.18000000
     0.00251889     0.08564232     0.10000000
     0.02770781     0.03022670     0.18000000
     0.03274559     0.11335013     0.10000000
     0.05541562     0.06045340     0.18000000
     0.06297229     0.14105793     0.10000000
     0.08312343     0.09068010     0.18000000
     0.09319899     0.16876574     0.10000000
     0.11083123     0.12090680     0.18000000
     0.12342569     0.19647355     0.10000000
     0.13853904     0.15113350     0.18000000
     0.15365239     0.22418136     0.10000000
     0.16624685     0.18136020     0.18000000
     0.18387909     0.25188917     0.10000000
     0.19395466     0.21158690     0.18000000
     0.21410579     0.27959698     0.10000000
     0.22166247     0.24181360     0.18000000
     0.24433249     0.30730479     0.10000000
     0.24937028     0.27204030     0.18000000
     0.27455919     0.33501259     0.10000000
     0.27707809     0.30226700     0.18000000
     0.30478589     0.36272040     0.10000000
     0.30478589     0.33249370     0.18000000
     0.33501259     0.39042821     0.10000000
     0.33249370     0.36272040     0.18000000
     0.36523929     0.41813602     0.10000000
     0.36020151     0.39294710     0.18000000
     0.39546599     0.44584383     0.10000000
     0.38790932     0.42317380     0.18000000
     0.42569270     0.47355164     0.10000000
     0.41561713     0.45340050     0.18000000
     0.45591940     0.50125945     0.10000000
     0.44332494     0.48362720     0.18000000
     0.48614610     0.52896725     0.10000000
     0.47103275     0.51385390     0.18000000
     0.51637280     0.55667506     0.10000000
     0.49874055     0.54408060     0.18000000
     0.54659950     0.58438287     0.10000000
     0.52644836     0.57430730     0.18000000
     0.57682620     0.61209068     0.10000000
     0.55415617     0.60453401     0.18000000
     0.60705290     0.63979849     0.10000000
     0.58186398     0.63476071     0.18000000
     0.63727960     0.66750630     0.10000000
     0.60957179     0.66498741     0.18000000
     0.66750630     0.69521411     0.10000000
     0.63727960     0.69521411     0.18000000
     0.69773300     0.72292191     0.10000000
     0.66498741     0.72544081     0.18000000
     0.72795970     0.75062972     0.10000000
     0.69269521     0.75566751     0.18000000
     0.75818640     0.77833753     0.10000000
     0.72040302     0.78589421     0.18000000
     0.78841310     0.80604534     0.10000000
     0.74811083     0.81612091     0.18000000
     0.81863980     0.83375315     0.10000000
     0.77581864     0.84634761     0.18000000
     0.84886650     0.86146096     0.10000000
     0.80352645     0.87657431     0.18000000
     0.87909320     0.88916877     0.10000000
     0.83123426     0.90680101     0.18000000
     0.90931990     0.91687657     0.10000000
     0.85894207     0.93702771     0.18000000
     0.93954660     0.94458438     0.10000000
     0.88664987     0.96725441     0.18000000
     0.03022670     0.02770781     0.10000000
     0.91435768     0.99748111     0.18000000
     0.06045340     0.05541562     0.10000000
     0.08564232     0.00251889     0.18000000
     0.09068010     0.08312343     0.10000000
     0.11335013     0.03274559     0.18000000
     0.12090680     0.11083123     0.10000000
     0.14105793     0.06297229     0.18000000
     0.15113350     0.13853904     0.10000000
     0.16876574     0.09319899     0.18000000
     0.18136020     0.16624685     0.10000000
     0.19647355     0.12342569     0.18000000
     0.21158690     0.19395466     0.10000000
     0.22418136     0.15365239     0.18000000
     0.24181360     0.22166247     0.10000000
     0.25188917     0.18387909     0.18000000
     0.27204030     0.24937028     0.10000000
     0.27959698     0.21410579     0.18000000
     0.30226700     0.27707809     0.10000000
     0.30730479     0.24433249     0.18000000
     0.33249370     0.30478589     0.10000000
     0.33501259     0.27455919     0.18000000
     0.36272040     0.33249370     0.10000000
     0.36272040     0.30478589     0.18000000
     0.39294710     0.36020151     0.10000000
     0.39042821     0.33501259     0.18000000
     0.42317380     0.38790932     0.10000000
     0.41813602     0.36523929     0.18000000
     0.45340050     0.41561713     0.10000000
     0.44584383     0.39546599     0.18000000
     0.48362720     0.44332494     0.10000000
     0.47355164     0.42569270     0.18000000
     0.51385390     0.47103275     0.10000000
     0.50125945     0.45591940     0.18000000
     0.54408060     0.49874055     0.10000000
     0.52896725     0.48614610     0.18000000
     0.57430730     0.52644836     0.10000000
     0.55667506     0.51637280     0.18000000
     0.60453401     0.55415617     0.10000000
     0.58438287     0.54659950     0.18000000
     0.63476071     0.58186398     0.10000000
     0.61209068     0.57682620     0.18000000
     0.66498741     0.60957179     0.10000000
     0.63979849     0.60705290     0.18000000
     0.69521411     0.63727960     0.10000000
     0.66750630     0.63727960     0.18000000
     0.72544081     0.66498741     0.10000000
     0.69521411     0.66750630     0.18000000
     0.75566751     0.69269521     0.10000000
     0.72292191     0.69773300     0.18000000
     0.78589421     0.72040302     0.10000000
     0.75062972     0.72795970     0.18000000
     0.81612091     0.74811083     0.10000000
     0.77833753     0.75818640     0.18000000
     0.84634761     0.77581864     0.10000000
     0.80604534     0.78841310     0.18000000
     0.87657431     0.80352645     0.10000000
     0.83375315     0.81863980     0.18000000
     0.90680101     0.83123426     0.10000000
     0.86146096     0.84886650     0.18000000
     0.93702771     0.85894207     0.10000000
     0.88916877     0.87909320     0.18000000
     0.11838791     0.02518892     0.10000000
     0.91687657     0.90931990     0.18000000
     0.14861461     0.05289673     0.10000000
     0.94458438     0.93954660     0.18000000
     0.17884131     0.08060453     0.10000000
     0.17128463     0.00503778     0.18000000
     0.20906801     0.10831234     0.10000000
     0.19899244     0.03526448     0.18000000
     0.23929471     0.13602015     0.10000000
     0.22670025     0.06549118     0.18000000
     0.26952141     0.16372796     0.10000000
     0.25440806     0.09571788     0.18000000
     0.29974811     0.19143577     0.10000000
     0.28211587     0.12594458     0.18000000
     0.32997481     0.21914358     0.10000000
     0.30982368     0.15617128     0.18000000
     0.36020151     0.24685139     0.10000000
     0.33753149     0.18639798     0.18000000
     0.39042821     0.27455919     0.10000000
     0.36523929     0.21662469     0.18000000
     0.42065491     0.30226700     0.10000000
     0.39294710     0.24685139     0.18000000
     0.45088161     0.32997481     0.10000000
     0.42065491     0.27707809     0.18000000
     0.48110831     0.35768262     0.10000000
     0.44836272     0.30730479     0.18000000
     0.51133501     0.38539043     0.10000000
     0.47607053     0.33753149     0.18000000
     0.54156171     0.41309824     0.10000000
     0.50377834     0.36775819     0.18000000
     0.57178841     0.44080605     0.10000000
     0.53148615     0.39798489     0.18000000
     0.60201511     0.46851385     0.10000000
     0.55919395     0.42821159     0.18000000
     0.63224181     0.49622166     0.10000000
     0.58690176     0.45843829     0.18000000
     0.66246851     0.52392947     0.10000000
     0.61460957     0.48866499     0.18000000
     0.69269521     0.55163728     0.10000000
     0.64231738     0.51889169     0.18000000
     0.72292191     0.57934509     0.10000000
     0.67002519     0.54911839     0.18000000
     0.75314861     0.60705290     0.10000000
     0.69773300     0.57934509     0.18000000
     0.78337531     0.63476071     0.10000000
     0.72544081     0.60957179     0.18000000
     0.81360202     0.66246851     0.10000000
     0.75314861     0.63979849     0.18000000
     0.84382872     0.69017632     0.10000000
     0.78085642     0.67002519     0.18000000
     0.87405542     0.71788413     0.10000000
     0.80856423     0.70025189     0.18000000
     0.90428212     0.74559194     0.10000000
     0.83627204     0.73047859     0.18000000
     0.93450882     0.77329975     0.10000000
     0.86397985     0.76070529     0.18000000
     0.20654912     0.02267003     0.10000000
     0.89168766     0.79093199     0.18000000
     0.23677582     0.05037783     0.10000000
     0.91939547     0.82115869     0.18000000
     0.26700252     0.07808564     0.10000000
     0.94710327     0.85138539     0.18000000
     0.29722922     0.10579345     0.10000000
     0.25692695     0.00755668     0.18000000
     0.32745592     0.13350126     0.10000000
     0.28463476     0.03778338     0.18000000
     0.35768262     0.16120907     0.10000000
     0.31234257     0.06801008     0.18000000
     0.38790932     0.18891688     0.10000000
     0.34005038     0.09823678     0.18000000
     0.41813602     0.21662469     0.10000000
     0.36775819     0.12846348     0.18000000
     0.44836272     0.24433249     0.10000000
     0.39546599     0.15869018     0.18000000
     0.47858942     0.27204030     0.10000000
     0.42317380     0.18891688     0.18000000
     0.50881612     0.29974811     0.10000000
     0.45088161     0.21914358     0.18000000
     0.53904282     0.32745592     0.10000000
     0.47858942     0.24937028     0.18000000
     0.56926952     0.35516373     0.10000000
     0.50629723     0.27959698     0.18000000
     0.59949622     0.38287154     0.10000000
     0.53400504     0.30982368     0.18000000
     0.62972292     0.41057935     0.10000000
     0.56171285     0.34005038     0.18000000
     0.65994962     0.43828715     0.10000000
     0.58942065     0.37027708     0.18000000
     0.69017632     0.46599496     0.10000000
     0.61712846     0.40050378     0.18000000
     0.72040302     0.49370277     0.10000000
     0.64483627     0.43073048     0.18000000
     0.75062972     0.52141058     0.10000000
     0.67254408     0.46095718     0.18000000
     0.78085642     0.54911839     0.10000000
     0.70025189     0.49118388     0.18000000
     0.81108312     0.57682620     0.10000000
     0.72795970     0.52141058     0.18000000
     0.84130982     0.60453401     0.10000000
     0.75566751     0.55163728     0.18000000
     0.87153652     0.63224181     0.10000000
     0.78337531     0.58186398     0.18000000
     0.90176322     0.65994962     0.10000000
     0.81108312     0.61209068     0.18000000
     0.93198992     0.68765743     0.10000000
     0.83879093     0.64231738     0.18000000
     0.29471033     0.02015113     0.10000000
     0.86649874     0.67254408     0.18000000
     0.32493703     0.04785894     0.10000000
     0.89420655     0.70277078     0.18000000
     0.35516373     0.07556675     0.10000000
     0.92191436     0.73299748     0.18000000
     0.38539043     0.10327456     0.10000000
     0.94962217     0.76322418     0.18000000
     0.41561713     0.13098237     0.10000000
     0.34256927     0.01007557     0.18000000
     0.44584383     0.15869018     0.10000000
     0.37027708     0.04030227     0.18000000
     0.47607053     0.18639798     0.10000000
     0.39798489     0.07052897     0.18000000
     0.50629723     0.21410579     0.10000000
     0.42569270     0.10075567     0.18000000
     0.53652393     0.24181360     0.10000000
     0.45340050     0.13098237     0.18000000
     0.56675063     0.26952141     0.10000000
     0.48110831     0.16120907     0.18000000
     0.59697733     0.29722922     0.10000000
     0.50881612     0.19143577     0.18000000
     0.62720403     0.32493703     0.10000000
     0.53652393     0.22166247     0.18000000
     0.65743073     0.35264484     0.10000000
     0.56423174     0.25188917     0.18000000
     0.68765743     0.38035264     0.10000000
     0.59193955     0.28211587     0.18000000
     0.71788413     0.40806045     0.10000000
     0.61964736     0.31234257     0.18000000
     0.74811083     0.43576826     0.10000000
     0.64735516     0.34256927     0.18000000
     0.77833753     0.46347607     0.10000000
     0.67506297     0.37279597     0.18000000
     0.80856423     0.49118388     0.10000000
     0.70277078     0.40302267     0.18000000
     0.83879093     0.51889169     0.10000000
     0.73047859     0.43324937     0.18000000
     0.86901763     0.54659950     0.10000000
     0.75818640     0.46347607     0.18000000
     0.89924433     0.57430730     0.10000000
     0.78589421     0.49370277     0.18000000
     0.92947103     0.60201511     0.10000000
     0.81360202     0.52392947     0.18000000
     0.38287154     0.01763224     0.10000000
     0.84130982     0.55415617     0.18000000
     0.41309824     0.04534005     0.10000000
     0.86901763     0.58438287     0.18000000