python TBG.py -m 7 -n 8 -z 20.000000 -d 1.600000 -p 0.0,0.0 # theta=0.076942
    1.0
     27.14496607     17.09689332     0.00000000
    -1.23385991     32.05667497     0.00000000
     0.00000000     0.00000000     20.00000000
    C
    676
Direct
     0.95266272     0.95857988     0.10000000
     0.95857988     0.95266272     0.18000000
     0.00000000     0.00000000     0.10000000
     0.96449704     0.81656805     0.18000000
     0.94674556     0.82840237     0.10000000
     0.00591716     0.86390533     0.18000000
     0.99408284     0.86982249     0.10000000
     0.04733728     0.91124260     0.18000000
     0.04142012     0.91124260     0.10000000
     0.08875740     0.95857988     0.18000000
     0.08875740     0.95266272     0.10000000
     0.97041420     0.68047337     0.18000000
     0.13609467     0.99408284     0.10000000
     0.01183432     0.72781065     0.18000000
     0.94082840     0.69822485     0.10000000
     0.05325444     0.77514793     0.18000000
     0.98816568     0.73964497     0.10000000
     0.09467456     0.82248521     0.18000000
     0.03550296     0.78106509     0.10000000
     0.13609467     0.86982249     0.18000000
     0.08284024     0.82248521     0.10000000
     0.17751479     0.91715976     0.18000000
     0.13017751     0.86390533     0.10000000
     0.21893491     0.96449704     0.18000000
     0.17751479     0.90532544     0.10000000
     0.93491124     0.49704142     0.18000000
     0.22485207     0.94674556     0.10000000
     0.97633136     0.54437870     0.18000000
     0.27218935     0.98816568     0.10000000
     0.01775148     0.59171598     0.18000000
     0.93491124     0.56804734     0.10000000
     0.05917160     0.63905325     0.18000000
     0.98224852     0.60946746     0.10000000
     0.10059172     0.68639053     0.18000000
     0.02958580     0.65088757     0.10000000
     0.14201183     0.73372781     0.18000000
     0.07692308     0.69230769     0.10000000
     0.18343195     0.78106509     0.18000000
     0.12426036     0.73372781     0.10000000
     0.22485207     0.82840237     0.18000000
     0.17159763     0.77514793     0.10000000
     0.26627219     0.87573964     0.18000000
     0.21893491     0.81656805     0.10000000
     0.30769231     0.92307692     0.18000000
     0.26627219     0.85798817     0.10000000
     0.34911243     0.97041420     0.18000000
     0.31360947     0.89940828     0.10000000
     0.94082840     0.36094675     0.18000000
     0.36094675     0.94082840     0.10000000
     0.98224852     0.40828402     0.18000000
     0.40828402     0.98224852     0.10000000
     0.02366864     0.45562130     0.18000000
     0.97633136     0.47928994     0.10000000
     0.06508876     0.50295858     0.18000000
     0.02366864     0.52071006     0.10000000
     0.10650888     0.55029586     0.18000000
     0.07100592     0.56213018     0.10000000
     0.14792899     0.59763314     0.18000000
     0.11834320     0.60355030     0.10000000
     0.18934911     0.64497041     0.18000000
     0.16568047     0.64497041     0.10000000
     0.23076923     0.69230769     0.18000000
     0.21301775     0.68639053     0.10000000
     0.27218935     0.73964497     0.18000000
     0.26035503     0.72781065     0.10000000
     0.31360947     0.78698225     0.18000000
     0.30769231     0.76923077     0.10000000
     0.35502959     0.83431953     0.18000000
     0.35502959     0.81065089     0.10000000
     0.39644970     0.88165680     0.18000000
     0.40236686     0.85207101     0.10000000
     0.43786982     0.92899408     0.18000000
     0.44970414     0.89349112     0.10000000
     0.47928994     0.97633136     0.18000000
     0.49704142     0.93491124     0.10000000
     0.94674556     0.22485207     0.18000000
     0.54437870     0.97633136     0.10000000
     0.98816568     0.27218935     0.18000000
     0.97041420     0.34911243     0.10000000
     0.02958580     0.31952663     0.18000000
     0.01775148     0.39053254     0.10000000
     0.07100592     0.36686391     0.18000000
     0.06508876     0.43195266     0.10000000
     0.11242604     0.41420118     0.18000000
     0.11242604     0.47337278     0.10000000
     0.15384615     0.46153846     0.18000000
     0.15976331     0.51479290     0.10000000
     0.19526627     0.50887574     0.18000000
     0.20710059     0.55621302     0.10000000
     0.23668639     0.55621302     0.18000000
     0.25443787     0.59763314     0.10000000
     0.27810651     0.60355030     0.18000000
     0.30177515     0.63905325     0.10000000
     0.31952663     0.65088757     0.18000000
     0.34911243     0.68047337     0.10000000
     0.36094675     0.69822485     0.18000000
     0.39644970     0.72189349     0.10000000
     0.40236686     0.74556213     0.18000000
     0.44378698     0.76331361     0.10000000
     0.44378698     0.79289941     0.18000000
     0.49112426     0.80473373     0.10000000
     0.48520710     0.84023669     0.18000000
     0.53846154     0.84615385     0.10000000
     0.52662722     0.88757396     0.18000000
     0.58579882     0.88757396     0.10000000
     0.56804734     0.93491124     0.18000000
     0.63313609     0.92899408     0.10000000
     0.60946746     0.98224852     0.18000000
     0.68047337     0.97041420     0.10000000
     0.95266272     0.08875740     0.18000000
     0.96449704     0.21893491     0.10000000
     0.99408284     0.13609467     0.18000000
     0.01183432     0.26035503     0.10000000
     0.03550296     0.18343195     0.18000000
     0.05917160     0.30177515     0.10000000
     0.07692308     0.23076923     0.18000000
     0.10650888     0.34319527     0.10000000
     0.11834320     0.27810651     0.18000000
     0.15384615     0.38461538     0.10000000
     0.15976331     0.32544379     0.18000000
     0.20118343     0.42603550     0.10000000
     0.20118343     0.37278107     0.18000000
     0.24852071     0.46745562     0.10000000
     0.24260355     0.42011834     0.18000000
     0.29585799     0.50887574     0.10000000
     0.28402367     0.46745562     0.18000000
     0.34319527     0.55029586     0.10000000
     0.32544379     0.51479290     0.18000000
     0.39053254     0.59171598     0.10000000
     0.36686391     0.56213018     0.18000000
     0.43786982     0.63313609     0.10000000
     0.40828402     0.60946746     0.18000000
     0.48520710     0.67455621     0.10000000
     0.44970414     0.65680473     0.18000000
     0.53254438     0.71597633     0.10000000
     0.49112426     0.70414201     0.18000000
     0.57988166     0.75739645     0.10000000
     0.53254438     0.75147929     0.18000000
     0.62721893     0.79881657     0.10000000
     0.57396450     0.79881657     0.18000000
     0.67455621     0.84023669     0.10000000
     0.61538462     0.84615385     0.18000000
     0.72189349     0.88165680     0.10000000
     0.65680473     0.89349112     0.18000000
     0.76923077     0.92307692     0.10000000
     0.69822485     0.94082840     0.18000000
     0.81656805     0.96449704     0.10000000
     0.73964497     0.98816568     0.18000000
     0.95857988     0.08875740     0.10000000
     0.00000000     0.00000000     0.18000000
     0.00591716     0.13017751     0.10000000
     0.04142012     0.04733728     0.18000000
     0.05325444     0.17159763     0.10000000
     0.08284024     0.09467456     0.18000000
     0.10059172     0.21301775     0.10000000
     0.12426036     0.14201183     0.18000000
     0.14792899     0.25443787     0.10000000
     0.16568047     0.18934911     0.18000000
     0.19526627     0.29585799     0.10000000
     0.20710059     0.23668639     0.18000000
     0.24260355     0.33727811     0.10000000
     0.24852071     0.28402367     0.18000000
     0.28994083     0.37869822     0.10000000
     0.28994083     0.33136095     0.18000000
     0.33727811     0.42011834     0.10000000
     0.33136095     0.37869822     0.18000000
     0.38461538     0.46153846     0.10000000
     0.37278107     0.42603550     0.18000000
     0.43195266     0.50295858     0.10000000
     0.41420118     0.47337278     0.18000000
     0.47928994     0.54437870     0.10000000
     0.45562130     0.52071006     0.18000000
     0.52662722     0.58579882     0.10000000
     0.49704142     0.56804734     0.18000000
     0.57396450     0.62721893     0.10000000
     0.53846154     0.61538462     0.18000000
     0.62130178     0.66863905     0.10000000
     0.57988166     0.66272189     0.18000000
     0.66863905     0.71005917     0.10000000
     0.62130178     0.71005917     0.18000000
     0.71597633     0.75147929     0.10000000
     0.66272189     0.75739645     0.18000000
     0.76331361     0.79289941     0.10000000
     0.70414201     0.80473373     0.18000000
     0.81065089     0.83431953     0.10000000
     0.74556213     0.85207101     0.18000000
     0.85798817     0.87573964     0.10000000
     0.78698225     0.89940828     0.18000000
     0.90532544     0.91715976     0.10000000
     0.82840237     0.94674556     0.18000000
     0.04733728     0.04142012     0.10000000
     0.86982249     0.99408284     0.18000000
     0.09467456     0.08284024     0.10000000
     0.13017751     0.00591716     0.18000000
     0.14201183     0.12426036     0.10000000
     0.17159763     0.05325444     0.18000000
     0.18934911     0.16568047     0.10000000
     0.21301775     0.10059172     0.18000000
     0.23668639     0.20710059     0.10000000
     0.25443787     0.14792899     0.18000000
     0.28402367     0.24852071     0.10000000
     0.29585799     0.19526627     0.18000000
     0.33136095     0.28994083     0.10000000
     0.33727811     0.24260355     0.18000000
     0.37869822     0.33136095     0.10000000
     0.37869822     0.28994083     0.18000000
     0.42603550     0.37278107     0.10000000
     0.42011834     0.33727811     0.18000000
     0.47337278     0.41420118     0.10000000
     0.46153846     0.38461538     0.18000000
     0.52071006     0.45562130     0.10000000
     0.50295858     0.43195266     0.18000000
     0.56804734     0.49704142     0.10000000
     0.54437870     0.47928994     0.18000000
     0.61538462     0.53846154     0.10000000
     0.58579882     0.52662722     0.18000000
     0.66272189     0.57988166     0.10000000
     0.62721893     0.57396450     0.18000000
     0.71005917     0.62130178     0.10000000
     0.66863905     0.62130178     0.18000000
     0.75739645     0.66272189     0.10000000
     0.71005917     0.66863905     0.18000000
     0.80473373     0.70414201     0.10000000
     0.75147929     0.71597633     0.18000000
     0.85207101     0.74556213     0.10000000
     0.79289941     0.76331361     0.18000000
     0.89940828     0.78698225     0.10000000
     0.83431953     0.81065089     0.18000000
     0.18343195     0.03550296     0.10000000
     0.87573964     0.85798817     0.18000000
     0.23076923     0.07692308     0.10000000
     0.91715976     0.90532544     0.18000000
     0.27810651     0.11834320     0.10000000
     0.26035503     0.01183432     0.18000000
     0.32544379     0.15976331     0.10000000
     0.30177515     0.05917160     0.18000000
     0.37278107     0.20118343     0.10000000
     0.34319527     0.10650888     0.18000000
     0.42011834     0.24260355     0.10000000
     0.38461538     0.15384615     0.18000000
     0.46745562     0.28402367     0.10000000
     0.42603550     0.20118343     0.18000000
     0.51479290     0.32544379     0.10000000
     0.46745562     0.24852071     0.18000000
     0.56213018     0.36686391     0.10000000
     0.50887574     0.29585799     0.18000000
     0.60946746     0.40828402     0.10000000
     0.55029586     0.34319527     0.18000000
     0.65680473     0.44970414     0.10000000
     0.59171598     0.39053254     0.18000000
     0.70414201     0.49112426     0.10000000
     0.63313609     0.43786982     0.18000000
     0.75147929     0.53254438     0.10000000
     0.67455621     0.48520710     0.18000000
     0.79881657     0.57396450     0.10000000
     0.71597633     0.53254438     0.18000000
     0.84615385     0.61538462     0.10000000
     0.75739645     0.57988166     0.18000000
     0.89349112     0.65680473     0.10000000
     0.79881657     0.62721893     0.18000000
     0.31952663     0.02958580     0.10000000
     0.84023669     0.67455621     0.18000000
     0.36686391     0.07100592     0.10000000
     0.88165680     0.72189349     0.18000000
     0.41420118     0.11242604     0.10000000
     0.92307692     0.76923077     0.18000000
     0.46153846     0.15384615     0.10000000
     0.39053254     0.01775148     0.18000000
     0.50887574     0.19526627     0.10000000
     0.43195266     0.06508876     0.18000000
     0.55621302     0.23668639     0.10000000
     0.47337278     0.11242604     0.18000000
     0.60355030     0.27810651     0.10000000
     0.51479290     0.15976331     0.18000000
     0.65088757     0.31952663     0.10000000
     0.55621302     0.20710059     0.18000000
     0.69822485     0.36094675     0.10000000
     0.59763314     0.25443787     0.18000000
     0.74556213     0.40236686     0.10000000
     0.63905325     0.30177515     0.18000000
     0.79289941     0.44378698     0.10000000
     0.68047337     0.34911243     0.18000000
     0.84023669     0.48520710     0.10000000
     0.72189349     0.39644970     0.18000000
     0.88757396     0.52662722     0.10000000
     0.76331361     0.44378698     0.18000000
     0.45562130     0.02366864     0.10000000
     0.80473373     0.49112426     0.18000000
     0.50295858     0.06508876     0.10000000
     0.84615385     0.53846154     0.18000000
     0.55029586     0.10650888     0.10000000
     0.88757396     0.58579882     0.18000000
     0.59763314     0.14792899     0.10000000
     0.92899408     0.63313609     0.18000000
     0.64497041     0.18934911     0.10000000
     0.52071006     0.02366864     0.18000000
     0.69230769     0.23076923     0.10000000
     0.56213018     0.07100592     0.18000000
     0.73964497     0.27218935     0.10000000
     0.60355030     0.11834320     0.18000000
     0.78698225     0.31360947     0.10000000
     0.64497041     0.16568047     0.18000000
     0.83431953     0.35502959     0.10000000
     0.68639053     0.21301775     0.18000000
     0.88165680     0.39644970     0.10000000
     0.72781065     0.26035503     0.18000000
     0.92899408     0.43786982     0.10000000
     0.76923077     0.30769231     0.18000000
     0.59171598     0.01775148     0.10000000
     0.81065089     0.35502959     0.18000000
     0.63905325     0.05917160     0.10000000
     0.85207101     0.40236686     0.18000000
     0.68639053     0.10059172     0.10000000
     0.89349112     0.44970414     0.18000000
     0.73372781     0.14201183     0.10000000
     0.65088757     0.02958580     0.18000000
     0.78106509     0.18343195     0.10000000
     0.69230769     0.07692308     0.18000000
     0.82840237     0.22485207     0.10000000
     0.73372781     0.12426036     0.18000000
     0.87573964     0.26627219     0.10000000
     0.77514793     0.17159763     0.18000000
     0.92307692     0.30769231     0.10000000
     0.81656805     0.21893491     0.18000000
     0.72781065     0.01183432     0.10000000
     0.85798817     0.26627219     0.18000000
     0.77514793     0.05325444     0.10000000
     0.89940828     0.31360947     0.18000000
     0.82248521     0.09467456     0.10000000
     0.78106509     0.03550296     0.18000000
     0.86982249     0.13609467     0.10000000
     0.82248521     0.08284024     0.18000000
     0.91715976     0.17751479     0.10000000
     0.86390533     0.13017751     0.18000000
     0.86390533     0.00591716     0.10000000
     0.90532544     0.17751479     0.18000000
     0.91124260     0.04733728     0.10000000
     0.91124260     0.04142012     0.18000000
     0.04339250     0.95463511     0.10000000
     0.04536489     0.95660749     0.18000000
     0.09072978     0.99605522     0.10000000
     0.05128205     0.82051282     0.18000000
     0.03747535     0.82445759     0.10000000
     0.09270217     0.86785010     0.18000000
     0.08481262     0.86587771     0.10000000
     0.13412229     0.91518737     0.18000000
     0.13214990     0.90729783     0.10000000
     0.17554241     0.96252465     0.18000000
     0.17948718     0.94871795     0.10000000
     0.05719921     0.68441814     0.18000000
     0.22682446     0.99013806     0.10000000
     0.09861933     0.73175542     0.18000000
     0.03155819     0.69428008     0.10000000
     0.14003945     0.77909270     0.18000000
     0.07889546     0.73570019     0.10000000
     0.18145957     0.82642998     0.18000000
     0.12623274     0.77712031     0.10000000
     0.22287968     0.87376726     0.18000000
     0.17357002     0.81854043     0.10000000
     0.26429980     0.92110453     0.18000000
     0.22090730     0.85996055     0.10000000
     0.30571992     0.96844181     0.18000000
     0.26824458     0.90138067     0.10000000
     0.02169625     0.50098619     0.18000000
     0.31558185     0.94280079     0.10000000
     0.06311637     0.54832347     0.18000000
     0.36291913     0.98422090     0.10000000
     0.10453649     0.59566075     0.18000000
     0.02564103     0.56410256     0.10000000
     0.14595661     0.64299802     0.18000000
     0.07297830     0.60552268     0.10000000
     0.18737673     0.69033530     0.18000000
     0.12031558     0.64694280     0.10000000
     0.22879684     0.73767258     0.18000000
     0.16765286     0.68836292     0.10000000
     0.27021696     0.78500986     0.18000000
     0.21499014     0.72978303     0.10000000
     0.31163708     0.83234714     0.18000000
     0.26232742     0.77120315     0.10000000
     0.35305720     0.87968442     0.18000000
     0.30966469     0.81262327     0.10000000
     0.39447732     0.92702169     0.18000000
     0.35700197     0.85404339     0.10000000
     0.43589744     0.97435897     0.18000000
     0.40433925     0.89546351     0.10000000
     0.02761341     0.36489152     0.18000000
     0.45167653     0.93688363     0.10000000
     0.06903353     0.41222879     0.18000000
     0.49901381     0.97830374     0.10000000
     0.11045365     0.45956607     0.18000000
     0.06706114     0.47534517     0.10000000
     0.15187377     0.50690335     0.18000000
     0.11439842     0.51676528     0.10000000
     0.19329389     0.55424063     0.18000000
     0.16173570     0.55818540     0.10000000
     0.23471400     0.60157791     0.18000000
     0.20907298     0.59960552     0.10000000
     0.27613412     0.64891518     0.18000000
     0.25641026     0.64102564     0.10000000
     0.31755424     0.69625246     0.18000000
     0.30374753     0.68244576     0.10000000
     0.35897436     0.74358974     0.18000000
     0.35108481     0.72386588     0.10000000
     0.40039448     0.79092702     0.18000000
     0.39842209     0.76528599     0.10000000
     0.44181460     0.83826430     0.18000000
     0.44575937     0.80670611     0.10000000
     0.48323471     0.88560158     0.18000000
     0.49309665     0.84812623     0.10000000
     0.52465483     0.93293885     0.18000000
     0.54043392     0.88954635     0.10000000
     0.56607495     0.98027613     0.18000000
     0.58777120     0.93096647     0.10000000
     0.03353057     0.22879684     0.18000000
     0.63510848     0.97238659     0.10000000
     0.07495069     0.27613412     0.18000000
     0.06114398     0.34516765     0.10000000
     0.11637081     0.32347140     0.18000000
     0.10848126     0.38658777     0.10000000
     0.15779093     0.37080868     0.18000000
     0.15581854     0.42800789     0.10000000
     0.19921105     0.41814595     0.18000000
     0.20315582     0.46942801     0.10000000
     0.24063116     0.46548323     0.18000000
     0.25049310     0.51084812     0.10000000
     0.28205128     0.51282051     0.18000000
     0.29783037     0.55226824     0.10000000
     0.32347140     0.56015779     0.18000000
     0.34516765     0.59368836     0.10000000
     0.36489152     0.60749507     0.18000000
     0.39250493     0.63510848     0.10000000
     0.40631164     0.65483234     0.18000000
     0.43984221     0.67652860     0.10000000
     0.44773176     0.70216962     0.18000000
     0.48717949     0.71794872     0.10000000
     0.48915187     0.74950690     0.18000000
     0.53451677     0.75936883     0.10000000
     0.53057199     0.79684418     0.18000000
     0.58185404     0.80078895     0.10000000
     0.57199211     0.84418146     0.18000000
     0.62919132     0.84220907     0.10000000
     0.61341223     0.89151873     0.18000000
     0.67652860     0.88362919     0.10000000
     0.65483235     0.93885601     0.18000000
     0.72386588     0.92504931     0.10000000
     0.69625247     0.98619329     0.18000000
     0.77120316     0.96646943     0.10000000
     0.03944773     0.09270217     0.18000000
     0.05522682     0.21499014     0.10000000
     0.08086785     0.14003945     0.18000000
     0.10256410     0.25641025     0.10000000
     0.12228797     0.18737672     0.18000000
     0.14990138     0.29783037     0.10000000
     0.16370809     0.23471400     0.18000000
     0.19723866     0.33925049     0.10000000
     0.20512821     0.28205128     0.18000000
     0.24457594     0.38067061     0.10000000
     0.24654832     0.32938856     0.18000000
     0.29191321     0.42209073     0.10000000
     0.28796844     0.37672584     0.18000000
     0.33925049     0.46351085     0.10000000
     0.32938856     0.42406311     0.18000000
     0.38658777     0.50493096     0.10000000
     0.37080868     0.47140039     0.18000000
     0.43392505     0.54635108     0.10000000
     0.41222880     0.51873767     0.18000000
     0.48126233     0.58777120     0.10000000
     0.45364892     0.56607495     0.18000000
     0.52859961     0.62919132     0.10000000
     0.49506903     0.61341223     0.18000000
     0.57593688     0.67061144     0.10000000
     0.53648915     0.66074950     0.18000000
     0.62327416     0.71203156     0.10000000
     0.57790927     0.70808678     0.18000000
     0.67061144     0.75345167     0.10000000
     0.61932939     0.75542406     0.18000000
     0.71794872     0.79487179     0.10000000
     0.66074951     0.80276134     0.18000000
     0.76528600     0.83629191     0.10000000
     0.70216963     0.85009862     0.18000000
     0.81262327     0.87771203     0.10000000
     0.74358974     0.89743589     0.18000000
     0.85996055     0.91913215     0.10000000
     0.78500986     0.94477317     0.18000000
     0.90729783     0.96055227     0.10000000
     0.82642998     0.99211045     0.18000000
     0.04930966     0.08481262     0.10000000
     0.08678501     0.00394477     0.18000000
     0.09664694     0.12623274     0.10000000
     0.12820513     0.05128205     0.18000000
     0.14398422     0.16765286     0.10000000
     0.16962525     0.09861933     0.18000000
     0.19132150     0.20907298     0.10000000
     0.21104537     0.14595660     0.18000000
     0.23865878     0.25049309     0.10000000
     0.25246548     0.19329388     0.18000000
     0.28599606     0.29191321     0.10000000
     0.29388560     0.24063116     0.18000000
     0.33333333     0.33333333     0.10000000
     0.33530572     0.28796844     0.18000000
     0.38067061     0.37475345     0.10000000
     0.37672584     0.33530572     0.18000000
     0.42800789     0.41617357     0.10000000
     0.41814596     0.38264300     0.18000000
     0.47534517     0.45759369     0.10000000
     0.45956608     0.42998027     0.18000000
     0.52268245     0.49901380     0.10000000
     0.50098619     0.47731755     0.18000000
     0.57001972     0.54043392     0.10000000
     0.54240631     0.52465483     0.18000000
     0.61735700     0.58185404     0.10000000
     0.58382643     0.57199211     0.18000000
     0.66469428     0.62327416     0.10000000
     0.62524655     0.61932939     0.18000000
     0.71203156     0.66469428     0.10000000
     0.66666667     0.66666666     0.18000000
     0.75936884     0.70611440     0.10000000
     0.70808679     0.71400394     0.18000000
     0.80670611     0.74753451     0.10000000
     0.74950690     0.76134122     0.18000000
     0.85404339     0.78895463     0.10000000
     0.79092702     0.80867850     0.18000000
     0.90138067     0.83037475     0.10000000
     0.83234714     0.85601578     0.18000000
     0.94871795     0.87179487     0.10000000
     0.87376726     0.90335305     0.18000000
     0.99605523     0.91321499     0.10000000
     0.91518738     0.95069033     0.18000000
     0.13806706     0.03747534     0.10000000
     0.95660750     0.99802761     0.18000000
     0.18540434     0.07889546     0.10000000
     0.21696252     0.00986193     0.18000000
     0.23274162     0.12031558     0.10000000
     0.25838264     0.05719921     0.18000000
     0.28007890     0.16173570     0.10000000
     0.29980276     0.10453649     0.18000000
     0.32741617     0.20315582     0.10000000
     0.34122288     0.15187376     0.18000000
     0.37475345     0.24457593     0.10000000
     0.38264300     0.19921104     0.18000000
     0.42209073     0.28599605     0.10000000
     0.42406312     0.24654832     0.18000000
     0.46942801     0.32741617     0.10000000
     0.46548323     0.29388560     0.18000000
     0.51676529     0.36883629     0.10000000
     0.50690335     0.34122288     0.18000000
     0.56410256     0.41025641     0.10000000
     0.54832347     0.38856016     0.18000000
     0.61143984     0.45167653     0.10000000
     0.58974359     0.43589743     0.18000000
     0.65877712     0.49309664     0.10000000
     0.63116371     0.48323471     0.18000000
     0.70611440     0.53451676     0.10000000
     0.67258383     0.53057199     0.18000000
     0.75345168     0.57593688     0.10000000
     0.71400394     0.57790927     0.18000000
     0.80078895     0.61735700     0.10000000
     0.75542406     0.62524655     0.18000000
     0.84812623     0.65877712     0.10000000
     0.79684418     0.67258382     0.18000000
     0.89546351     0.70019724     0.10000000
     0.83826430     0.71992110     0.18000000
     0.94280079     0.74161735     0.10000000
     0.87968442     0.76725838     0.18000000
     0.99013807     0.78303747     0.10000000
     0.92110454     0.81459566     0.18000000
     0.27416174     0.03155818     0.10000000
     0.96252465     0.86193294     0.18000000
     0.32149901     0.07297830     0.10000000
     0.00394477     0.90927021     0.18000000
     0.36883629     0.11439842     0.10000000
     0.34714004     0.01577909     0.18000000
     0.41617357     0.15581854     0.10000000
     0.38856016     0.06311637     0.18000000
     0.46351085     0.19723866     0.10000000
     0.42998028     0.11045365     0.18000000
     0.51084813     0.23865877     0.10000000
     0.47140039     0.15779092     0.18000000
     0.55818540     0.28007889     0.10000000
     0.51282051     0.20512820     0.18000000
     0.60552268     0.32149901     0.10000000
     0.55424063     0.25246548     0.18000000
     0.65285996     0.36291913     0.10000000
     0.59566075     0.29980276     0.18000000
     0.70019724     0.40433925     0.10000000
     0.63708087     0.34714004     0.18000000
     0.74753452     0.44575937     0.10000000
     0.67850099     0.39447731     0.18000000
     0.79487179     0.48717948     0.10000000
     0.71992110     0.44181459     0.18000000
     0.84220907     0.52859960     0.10000000
     0.76134122     0.48915187     0.18000000
     0.88954635     0.57001972     0.10000000
     0.80276134     0.53648915     0.18000000
     0.93688363     0.61143984     0.10000000
     0.84418146     0.58382643     0.18000000
     0.98422091     0.65285996     0.10000000
     0.88560158     0.63116371     0.18000000
     0.41025641     0.02564102     0.10000000
     0.92702170     0.67850098     0.18000000
     0.45759369     0.06706114     0.10000000
     0.96844181     0.72583826     0.18000000
     0.50493097     0.10848126     0.10000000
     0.00986193     0.77317554     0.18000000
     0.55226824     0.14990138     0.10000000
     0.47731755     0.02169625     0.18000000
     0.59960552     0.19132150     0.10000000
     0.51873767     0.06903353     0.18000000
     0.64694280     0.23274161     0.10000000
     0.56015779     0.11637081     0.18000000
     0.69428008     0.27416173     0.10000000
     0.60157791     0.16370808     0.18000000
     0.74161736     0.31558185     0.10000000
     0.64299803     0.21104536     0.18000000
     0.78895464     0.35700197     0.10000000
     0.68441815     0.25838264     0.18000000
     0.83629191     0.39842209     0.10000000
     0.72583826     0.30571992     0.18000000
     0.88362919     0.43984221     0.10000000
     0.76725838     0.35305720     0.18000000
     0.93096647     0.48126232     0.10000000
     0.80867850     0.40039447     0.18000000
     0.97830375     0.52268244     0.10000000
     0.85009862     0.44773175     0.18000000
     0.54635108     0.01972386     0.10000000
     0.89151874     0.49506903     0.18000000
     0.59368836     0.06114398     0.10000000
     0.93293886     0.54240631     0.18000000
     0.64102564     0.10256410     0.10000000
     0.97435897     0.58974359     0.18000000
     0.68836292     0.14398422     0.10000000
     0.01577909     0.63708087     0.18000000
     0.73570020     0.18540434     0.10000000
     0.60749507     0.02761341     0.18000000
     0.78303748     0.22682445     0.10000000
     0.64891519     0.07495069     0.18000000
     0.83037475     0.26824457     0.10000000
     0.69033531     0.12228797     0.18000000
     0.87771203     0.30966469     0.10000000
     0.73175542     0.16962524     0.18000000
     0.92504931     0.35108481     0.10000000
     0.77317554     0.21696252     0.18000000
     0.97238659     0.39250493     0.10000000
     0.81459566     0.26429980     0.18000000
     0.01972387     0.43392505     0.10000000
     0.85601578     0.31163708     0.18000000