C4
1.0
        2.4677240849         0.0000000000         0.0000000000
        1.2338621847         2.1371116649         0.0000000000
        0.0000000000         0.0000000000         8.6850376129
    C
    2
Direct
     0.000000000         0.000000000         0.750000000
     0.666666687         0.666666627         0.750000000
