Generated by Twist2D
    1.0
      27.15816302      17.10520524       0.00000000
      -1.23445977      32.07225982       0.00000000
       0.00000000       0.00000000      20.00000000
    C  B  N
    338  169  169
Direct
     0.04142012     0.91124260     0.10000000
     0.08875740     0.95266272     0.10000000
     0.13609467     0.99408284     0.10000000
     0.03550296     0.78106509     0.10000000
     0.08284024     0.82248521     0.10000000
     0.13017751     0.86390533     0.10000000
     0.17751479     0.90532544     0.10000000
     0.22485207     0.94674556     0.10000000
     0.27218935     0.98816568     0.10000000
     0.02958580     0.65088757     0.10000000
     0.07692308     0.69230769     0.10000000
     0.12426036     0.73372781     0.10000000
     0.17159763     0.77514793     0.10000000
     0.21893491     0.81656805     0.10000000
     0.26627219     0.85798817     0.10000000
     0.31360947     0.89940828     0.10000000
     0.36094675     0.94082840     0.10000000
     0.40828402     0.98224852     0.10000000
     0.02366864     0.52071006     0.10000000
     0.07100592     0.56213018     0.10000000
     0.11834320     0.60355030     0.10000000
     0.16568047     0.64497041     0.10000000
     0.21301775     0.68639053     0.10000000
     0.26035503     0.72781065     0.10000000
     0.30769231     0.76923077     0.10000000
     0.35502959     0.81065089     0.10000000
     0.40236686     0.85207101     0.10000000
     0.44970414     0.89349112     0.10000000
     0.49704142     0.93491124     0.10000000
     0.54437870     0.97633136     0.10000000
     0.01775148     0.39053254     0.10000000
     0.06508876     0.43195266     0.10000000
     0.11242604     0.47337278     0.10000000
     0.15976331     0.51479290     0.10000000
     0.20710059     0.55621302     0.10000000
     0.25443787     0.59763314     0.10000000
     0.30177515     0.63905325     0.10000000
     0.34911243     0.68047337     0.10000000
     0.39644970     0.72189349     0.10000000
     0.44378698     0.76331361     0.10000000
     0.49112426     0.80473373     0.10000000
     0.53846154     0.84615385     0.10000000
     0.58579882     0.88757396     0.10000000
     0.63313609     0.92899408     0.10000000
     0.68047337     0.97041420     0.10000000
     0.01183432     0.26035503     0.10000000
     0.05917160     0.30177515     0.10000000
     0.10650888     0.34319527     0.10000000
     0.15384615     0.38461538     0.10000000
     0.20118343     0.42603550     0.10000000
     0.24852071     0.46745562     0.10000000
     0.29585799     0.50887574     0.10000000
     0.34319527     0.55029586     0.10000000
     0.39053254     0.59171598     0.10000000
     0.43786982     0.63313609     0.10000000
     0.48520710     0.67455621     0.10000000
     0.53254438     0.71597633     0.10000000
     0.57988166     0.75739645     0.10000000
     0.62721893     0.79881657     0.10000000
     0.67455621     0.84023669     0.10000000
     0.72189349     0.88165680     0.10000000
     0.76923077     0.92307692     0.10000000
     0.81656805     0.96449704     0.10000000
     0.00591716     0.13017751     0.10000000
     0.05325444     0.17159763     0.10000000
     0.10059172     0.21301775     0.10000000
     0.14792899     0.25443787     0.10000000
     0.19526627     0.29585799     0.10000000
     0.24260355     0.33727811     0.10000000
     0.28994083     0.37869822     0.10000000
     0.33727811     0.42011834     0.10000000
     0.38461538     0.46153846     0.10000000
     0.43195266     0.50295858     0.10000000
     0.47928994     0.54437870     0.10000000
     0.52662722     0.58579882     0.10000000
     0.57396450     0.62721893     0.10000000
     0.62130178     0.66863905     0.10000000
     0.66863905     0.71005917     0.10000000
     0.71597633     0.75147929     0.10000000
     0.76331361     0.79289941     0.10000000
     0.81065089     0.83431953     0.10000000
     0.85798817     0.87573964     0.10000000
     0.90532544     0.91715976     0.10000000
     0.95266272     0.95857988     0.10000000
     0.00000000     0.00000000     0.10000000
     0.04733728     0.04142012     0.10000000
     0.09467456     0.08284024     0.10000000
     0.14201183     0.12426036     0.10000000
     0.18934911     0.16568047     0.10000000
     0.23668639     0.20710059     0.10000000
     0.28402367     0.24852071     0.10000000
     0.33136095     0.28994083     0.10000000
     0.37869822     0.33136095     0.10000000
     0.42603550     0.37278107     0.10000000
     0.47337278     0.41420118     0.10000000
     0.52071006     0.45562130     0.10000000
     0.56804734     0.49704142     0.10000000
     0.61538462     0.53846154     0.10000000
     0.66272189     0.57988166     0.10000000
     0.71005917     0.62130178     0.10000000
     0.75739645     0.66272189     0.10000000
     0.80473373     0.70414201     0.10000000
     0.85207101     0.74556213     0.10000000
     0.89940828     0.78698225     0.10000000
     0.94674556     0.82840237     0.10000000
     0.99408284     0.86982249     0.10000000
     0.18343195     0.03550296     0.10000000
     0.23076923     0.07692308     0.10000000
     0.27810651     0.11834320     0.10000000
     0.32544379     0.15976331     0.10000000
     0.37278107     0.20118343     0.10000000
     0.42011834     0.24260355     0.10000000
     0.46745562     0.28402367     0.10000000
     0.51479290     0.32544379     0.10000000
     0.56213018     0.36686391     0.10000000
     0.60946746     0.40828402     0.10000000
     0.65680473     0.44970414     0.10000000
     0.70414201     0.49112426     0.10000000
     0.75147929     0.53254438     0.10000000
     0.79881657     0.57396450     0.10000000
     0.84615385     0.61538462     0.10000000
     0.89349112     0.65680473     0.10000000
     0.94082840     0.69822485     0.10000000
     0.98816568     0.73964497     0.10000000
     0.31952663     0.02958580     0.10000000
     0.36686391     0.07100592     0.10000000
     0.41420118     0.11242604     0.10000000
     0.46153846     0.15384615     0.10000000
     0.50887574     0.19526627     0.10000000
     0.55621302     0.23668639     0.10000000
     0.60355030     0.27810651     0.10000000
     0.65088757     0.31952663     0.10000000
     0.69822485     0.36094675     0.10000000
     0.74556213     0.40236686     0.10000000
     0.79289941     0.44378698     0.10000000
     0.84023669     0.48520710     0.10000000
     0.88757396     0.52662722     0.10000000
     0.93491124     0.56804734     0.10000000
     0.98224852     0.60946746     0.10000000
     0.45562130     0.02366864     0.10000000
     0.50295858     0.06508876     0.10000000
     0.55029586     0.10650888     0.10000000
     0.59763314     0.14792899     0.10000000
     0.64497041     0.18934911     0.10000000
     0.69230769     0.23076923     0.10000000
     0.73964497     0.27218935     0.10000000
     0.78698225     0.31360947     0.10000000
     0.83431953     0.35502959     0.10000000
     0.88165680     0.39644970     0.10000000
     0.92899408     0.43786982     0.10000000
     0.97633136     0.47928994     0.10000000
     0.59171598     0.01775148     0.10000000
     0.63905325     0.05917160     0.10000000
     0.68639053     0.10059172     0.10000000
     0.73372781     0.14201183     0.10000000
     0.78106509     0.18343195     0.10000000
     0.82840237     0.22485207     0.10000000
     0.87573964     0.26627219     0.10000000
     0.92307692     0.30769231     0.10000000
     0.97041420     0.34911243     0.10000000
     0.72781065     0.01183432     0.10000000
     0.77514793     0.05325444     0.10000000
     0.82248521     0.09467456     0.10000000
     0.86982249     0.13609467     0.10000000
     0.91715976     0.17751479     0.10000000
     0.96449704     0.21893491     0.10000000
     0.86390533     0.00591716     0.10000000
     0.91124260     0.04733728     0.10000000
     0.95857988     0.08875740     0.10000000
     0.08678496     0.90927022     0.10000000
     0.13412224     0.95069034     0.10000000
     0.18145952     0.99211046     0.10000000
     0.08086780     0.77909271     0.10000000
     0.12820508     0.82051282     0.10000000
     0.17554236     0.86193294     0.10000000
     0.22287964     0.90335306     0.10000000
     0.27021692     0.94477318     0.10000000
     0.31755419     0.98619330     0.10000000
     0.07495064     0.64891519     0.10000000
     0.12228792     0.69033531     0.10000000
     0.16962520     0.73175543     0.10000000
     0.21696248     0.77317555     0.10000000
     0.26429976     0.81459566     0.10000000
     0.31163703     0.85601578     0.10000000
     0.35897431     0.89743590     0.10000000
     0.40631159     0.93885602     0.10000000
     0.45364887     0.98027614     0.10000000
     0.06903348     0.51873768     0.10000000
     0.11637076     0.56015779     0.10000000
     0.16370804     0.60157791     0.10000000
     0.21104532     0.64299803     0.10000000
     0.25838260     0.68441815     0.10000000
     0.30571988     0.72583827     0.10000000
     0.35305715     0.76725839     0.10000000
     0.40039443     0.80867850     0.10000000
     0.44773171     0.85009862     0.10000000
     0.49506899     0.89151874     0.10000000
     0.54240627     0.93293886     0.10000000
     0.58974354     0.97435898     0.10000000
     0.06311632     0.38856016     0.10000000
     0.11045360     0.42998028     0.10000000
     0.15779088     0.47140040     0.10000000
     0.20512816     0.51282052     0.10000000
     0.25246544     0.55424063     0.10000000
     0.29980272     0.59566075     0.10000000
     0.34713999     0.63708087     0.10000000
     0.39447727     0.67850099     0.10000000
     0.44181455     0.71992111     0.10000000
     0.48915183     0.76134123     0.10000000
     0.53648911     0.80276134     0.10000000
     0.58382638     0.84418146     0.10000000
     0.63116366     0.88560158     0.10000000
     0.67850094     0.92702170     0.10000000
     0.72583822     0.96844182     0.10000000
     0.05719917     0.25838265     0.10000000
     0.10453644     0.29980276     0.10000000
     0.15187372     0.34122288     0.10000000
     0.19921100     0.38264300     0.10000000
     0.24654828     0.42406312     0.10000000
     0.29388556     0.46548324     0.10000000
     0.34122283     0.50690336     0.10000000
     0.38856011     0.54832347     0.10000000
     0.43589739     0.58974359     0.10000000
     0.48323467     0.63116371     0.10000000
     0.53057195     0.67258383     0.10000000
     0.57790922     0.71400395     0.10000000
     0.62524650     0.75542407     0.10000000
     0.67258378     0.79684418     0.10000000
     0.71992106     0.83826430     0.10000000
     0.76725834     0.87968442     0.10000000
     0.81459561     0.92110454     0.10000000
     0.86193289     0.96252466     0.10000000
     0.05128201     0.12820513     0.10000000
     0.09861928     0.16962525     0.10000000
     0.14595656     0.21104537     0.10000000
     0.19329384     0.25246549     0.10000000
     0.24063112     0.29388560     0.10000000
     0.28796840     0.33530572     0.10000000
     0.33530567     0.37672584     0.10000000
     0.38264295     0.41814596     0.10000000
     0.42998023     0.45956608     0.10000000
     0.47731751     0.50098620     0.10000000
     0.52465479     0.54240631     0.10000000
     0.57199206     0.58382643     0.10000000
     0.61932934     0.62524655     0.10000000
     0.66666662     0.66666667     0.10000000
     0.71400390     0.70808679     0.10000000
     0.76134118     0.74950691     0.10000000
     0.80867846     0.79092702     0.10000000
     0.85601573     0.83234714     0.10000000
     0.90335301     0.87376726     0.10000000
     0.95069029     0.91518738     0.10000000
     0.99802757     0.95660750     0.10000000
     0.04536485    -0.00197238     0.10000000
     0.09270212     0.03944774     0.10000000
     0.14003940     0.08086785     0.10000000
     0.18737668     0.12228797     0.10000000
     0.23471396     0.16370809     0.10000000
     0.28205124     0.20512821     0.10000000
     0.32938851     0.24654833     0.10000000
     0.37672579     0.28796845     0.10000000
     0.42406307     0.32938856     0.10000000
     0.47140035     0.37080868     0.10000000
     0.51873763     0.41222880     0.10000000
     0.56607490     0.45364892     0.10000000
     0.61341218     0.49506904     0.10000000
     0.66074946     0.53648916     0.10000000
     0.70808674     0.57790927     0.10000000
     0.75542402     0.61932939     0.10000000
     0.80276130     0.66074951     0.10000000
     0.85009857     0.70216963     0.10000000
     0.89743585     0.74358975     0.10000000
     0.94477313     0.78500987     0.10000000
     0.99211041     0.82642998     0.10000000
     1.03944769     0.86785010     0.10000000
     0.22879680     0.03353058     0.10000000
     0.27613408     0.07495069     0.10000000
     0.32347135     0.11637081     0.10000000
     0.37080863     0.15779093     0.10000000
     0.41814591     0.19921105     0.10000000
     0.46548319     0.24063117     0.10000000
     0.51282047     0.28205129     0.10000000
     0.56015775     0.32347140     0.10000000
     0.60749502     0.36489152     0.10000000
     0.65483230     0.40631164     0.10000000
     0.70216958     0.44773176     0.10000000
     0.74950686     0.48915188     0.10000000
     0.79684414     0.53057200     0.10000000
     0.84418141     0.57199211     0.10000000
     0.89151869     0.61341223     0.10000000
     0.93885597     0.65483235     0.10000000
     0.98619325     0.69625247     0.10000000
     1.03353053     0.73767259     0.10000000
     0.36489147     0.02761342     0.10000000
     0.41222875     0.06903353     0.10000000
     0.45956603     0.11045365     0.10000000
     0.50690331     0.15187377     0.10000000
     0.55424059     0.19329389     0.10000000
     0.60157786     0.23471401     0.10000000
     0.64891514     0.27613413     0.10000000
     0.69625242     0.31755424     0.10000000
     0.74358970     0.35897436     0.10000000
     0.79092698     0.40039448     0.10000000
     0.83826425     0.44181460     0.10000000
     0.88560153     0.48323472     0.10000000
     0.93293881     0.52465484     0.10000000
     0.98027609     0.56607495     0.10000000
     1.02761337     0.60749507     0.10000000
     0.50098615     0.02169626     0.10000000
     0.54832343     0.06311637     0.10000000
     0.59566070     0.10453649     0.10000000
     0.64299798     0.14595661     0.10000000
     0.69033526     0.18737673     0.10000000
     0.73767254     0.22879685     0.10000000
     0.78500982     0.27021697     0.10000000
     0.83234709     0.31163708     0.10000000
     0.87968437     0.35305720     0.10000000
     0.92702165     0.39447732     0.10000000
     0.97435893     0.43589744     0.10000000
     1.02169621     0.47731756     0.10000000
     0.63708082     0.01577910     0.10000000
     0.68441810     0.05719921     0.10000000
     0.73175538     0.09861933     0.10000000
     0.77909266     0.14003945     0.10000000
     0.82642993     0.18145957     0.10000000
     0.87376721     0.22287969     0.10000000
     0.92110449     0.26429981     0.10000000
     0.96844177     0.30571992     0.10000000
     1.01577905     0.34714004     0.10000000
     0.77317550     0.00986194     0.10000000
     0.82051277     0.05128205     0.10000000
     0.86785005     0.09270217     0.10000000
     0.91518733     0.13412229     0.10000000
     0.96252461     0.17554241     0.10000000
     1.00986189     0.21696253     0.10000000
     0.90927017     0.00394478     0.10000000
     0.95660745     0.04536489     0.10000000
     1.00394473     0.08678501     0.10000000
     0.00591716     0.86390533     0.25000000
     0.04733728     0.91124260     0.25000000
     0.08875740     0.95857988     0.25000000
     0.01183432     0.72781065     0.25000000
     0.05325444     0.77514793     0.25000000
     0.09467456     0.82248521     0.25000000
     0.13609467     0.86982249     0.25000000
     0.17751479     0.91715976     0.25000000
     0.21893491     0.96449704     0.25000000
     0.01775148     0.59171598     0.25000000
     0.05917160     0.63905325     0.25000000
     0.10059172     0.68639053     0.25000000
     0.14201183     0.73372781     0.25000000
     0.18343195     0.78106509     0.25000000
     0.22485207     0.82840237     0.25000000
     0.26627219     0.87573964     0.25000000
     0.30769231     0.92307692     0.25000000
     0.34911243     0.97041420     0.25000000
     0.02366864     0.45562130     0.25000000
     0.06508876     0.50295858     0.25000000
     0.10650888     0.55029586     0.25000000
     0.14792899     0.59763314     0.25000000
     0.18934911     0.64497041     0.25000000
     0.23076923     0.69230769     0.25000000
     0.27218935     0.73964497     0.25000000
     0.31360947     0.78698225     0.25000000
     0.35502959     0.83431953     0.25000000
     0.39644970     0.88165680     0.25000000
     0.43786982     0.92899408     0.25000000
     0.47928994     0.97633136     0.25000000
     0.02958580     0.31952663     0.25000000
     0.07100592     0.36686391     0.25000000
     0.11242604     0.41420118     0.25000000
     0.15384615     0.46153846     0.25000000
     0.19526627     0.50887574     0.25000000
     0.23668639     0.55621302     0.25000000
     0.27810651     0.60355030     0.25000000
     0.31952663     0.65088757     0.25000000
     0.36094675     0.69822485     0.25000000
     0.40236686     0.74556213     0.25000000
     0.44378698     0.79289941     0.25000000
     0.48520710     0.84023669     0.25000000
     0.52662722     0.88757396     0.25000000
     0.56804734     0.93491124     0.25000000
     0.60946746     0.98224852     0.25000000
     0.03550296     0.18343195     0.25000000
     0.07692308     0.23076923     0.25000000
     0.11834320     0.27810651     0.25000000
     0.15976331     0.32544379     0.25000000
     0.20118343     0.37278107     0.25000000
     0.24260355     0.42011834     0.25000000
     0.28402367     0.46745562     0.25000000
     0.32544379     0.51479290     0.25000000
     0.36686391     0.56213018     0.25000000
     0.40828402     0.60946746     0.25000000
     0.44970414     0.65680473     0.25000000
     0.49112426     0.70414201     0.25000000
     0.53254438     0.75147929     0.25000000
     0.57396450     0.79881657     0.25000000
     0.61538462     0.84615385     0.25000000
     0.65680473     0.89349112     0.25000000
     0.69822485     0.94082840     0.25000000
     0.73964497     0.98816568     0.25000000
     0.00000000     0.00000000     0.25000000
     0.04142012     0.04733728     0.25000000
     0.08284024     0.09467456     0.25000000
     0.12426036     0.14201183     0.25000000
     0.16568047     0.18934911     0.25000000
     0.20710059     0.23668639     0.25000000
     0.24852071     0.28402367     0.25000000
     0.28994083     0.33136095     0.25000000
     0.33136095     0.37869822     0.25000000
     0.37278107     0.42603550     0.25000000
     0.41420118     0.47337278     0.25000000
     0.45562130     0.52071006     0.25000000
     0.49704142     0.56804734     0.25000000
     0.53846154     0.61538462     0.25000000
     0.57988166     0.66272189     0.25000000
     0.62130178     0.71005917     0.25000000
     0.66272189     0.75739645     0.25000000
     0.70414201     0.80473373     0.25000000
     0.74556213     0.85207101     0.25000000
     0.78698225     0.89940828     0.25000000
     0.82840237     0.94674556     0.25000000
     0.86982249     0.99408284     0.25000000
     0.13017751     0.00591716     0.25000000
     0.17159763     0.05325444     0.25000000
     0.21301775     0.10059172     0.25000000
     0.25443787     0.14792899     0.25000000
     0.29585799     0.19526627     0.25000000
     0.33727811     0.24260355     0.25000000
     0.37869822     0.28994083     0.25000000
     0.42011834     0.33727811     0.25000000
     0.46153846     0.38461538     0.25000000
     0.50295858     0.43195266     0.25000000
     0.54437870     0.47928994     0.25000000
     0.58579882     0.52662722     0.25000000
     0.62721893     0.57396450     0.25000000
     0.66863905     0.62130178     0.25000000
     0.71005917     0.66863905     0.25000000
     0.75147929     0.71597633     0.25000000
     0.79289941     0.76331361     0.25000000
     0.83431953     0.81065089     0.25000000
     0.87573964     0.85798817     0.25000000
     0.91715976     0.90532544     0.25000000
     0.95857988     0.95266272     0.25000000
     0.26035503     0.01183432     0.25000000
     0.30177515     0.05917160     0.25000000
     0.34319527     0.10650888     0.25000000
     0.38461538     0.15384615     0.25000000
     0.42603550     0.20118343     0.25000000
     0.46745562     0.24852071     0.25000000
     0.50887574     0.29585799     0.25000000
     0.55029586     0.34319527     0.25000000
     0.59171598     0.39053254     0.25000000
     0.63313609     0.43786982     0.25000000
     0.67455621     0.48520710     0.25000000
     0.71597633     0.53254438     0.25000000
     0.75739645     0.57988166     0.25000000
     0.79881657     0.62721893     0.25000000
     0.84023669     0.67455621     0.25000000
     0.88165680     0.72189349     0.25000000
     0.92307692     0.76923077     0.25000000
     0.96449704     0.81656805     0.25000000
     0.39053254     0.01775148     0.25000000
     0.43195266     0.06508876     0.25000000
     0.47337278     0.11242604     0.25000000
     0.51479290     0.15976331     0.25000000
     0.55621302     0.20710059     0.25000000
     0.59763314     0.25443787     0.25000000
     0.63905325     0.30177515     0.25000000
     0.68047337     0.34911243     0.25000000
     0.72189349     0.39644970     0.25000000
     0.76331361     0.44378698     0.25000000
     0.80473373     0.49112426     0.25000000
     0.84615385     0.53846154     0.25000000
     0.88757396     0.58579882     0.25000000
     0.92899408     0.63313609     0.25000000
     0.97041420     0.68047337     0.25000000
     0.52071006     0.02366864     0.25000000
     0.56213018     0.07100592     0.25000000
     0.60355030     0.11834320     0.25000000
     0.64497041     0.16568047     0.25000000
     0.68639053     0.21301775     0.25000000
     0.72781065     0.26035503     0.25000000
     0.76923077     0.30769231     0.25000000
     0.81065089     0.35502959     0.25000000
     0.85207101     0.40236686     0.25000000
     0.89349112     0.44970414     0.25000000
     0.93491124     0.49704142     0.25000000
     0.97633136     0.54437870     0.25000000
     0.65088757     0.02958580     0.25000000
     0.69230769     0.07692308     0.25000000
     0.73372781     0.12426036     0.25000000
     0.77514793     0.17159763     0.25000000
     0.81656805     0.21893491     0.25000000
     0.85798817     0.26627219     0.25000000
     0.89940828     0.31360947     0.25000000
     0.94082840     0.36094675     0.25000000
     0.98224852     0.40828402     0.25000000
     0.78106509     0.03550296     0.25000000
     0.82248521     0.08284024     0.25000000
     0.86390533     0.13017751     0.25000000
     0.90532544     0.17751479     0.25000000
     0.94674556     0.22485207     0.25000000
     0.98816568     0.27218935     0.25000000
     0.91124260     0.04142012     0.25000000
     0.95266272     0.08875740     0.25000000
     0.99408284     0.13609467     0.25000000
     0.04930962     0.86587771     0.25000000
     0.09072974     0.91321499     0.25000000
     0.13214986     0.96055227     0.25000000
     0.05522678     0.72978304     0.25000000
     0.09664690     0.77712031     0.25000000
     0.13806702     0.82445759     0.25000000
     0.17948714     0.87179487     0.25000000
     0.22090725     0.91913215     0.25000000
     0.26232737     0.96646943     0.25000000
     0.06114394     0.59368836     0.25000000
     0.10256406     0.64102564     0.25000000
     0.14398418     0.68836292     0.25000000
     0.18540430     0.73570020     0.25000000
     0.22682441     0.78303747     0.25000000
     0.26824453     0.83037475     0.25000000
     0.30966465     0.87771203     0.25000000
     0.35108477     0.92504931     0.25000000
     0.39250489     0.97238659     0.25000000
     0.06706110     0.45759369     0.25000000
     0.10848122     0.50493097     0.25000000
     0.14990134     0.55226824     0.25000000
     0.19132146     0.59960552     0.25000000
     0.23274157     0.64694280     0.25000000
     0.27416169     0.69428008     0.25000000
     0.31558181     0.74161736     0.25000000
     0.35700193     0.78895463     0.25000000
     0.39842205     0.83629191     0.25000000
     0.43984217     0.88362919     0.25000000
     0.48126228     0.93096647     0.25000000
     0.52268240     0.97830375     0.25000000
     0.07297826     0.32149901     0.25000000
     0.11439838     0.36883629     0.25000000
     0.15581850     0.41617357     0.25000000
     0.19723861     0.46351085     0.25000000
     0.23865873     0.51084813     0.25000000
     0.28007885     0.55818540     0.25000000
     0.32149897     0.60552268     0.25000000
     0.36291909     0.65285996     0.25000000
     0.40433921     0.70019724     0.25000000
     0.44575932     0.74753452     0.25000000
     0.48717944     0.79487179     0.25000000
     0.52859956     0.84220907     0.25000000
     0.57001968     0.88954635     0.25000000
     0.61143980     0.93688363     0.25000000
     0.65285992     0.98422091     0.25000000
     0.07889542     0.18540434     0.25000000
     0.12031554     0.23274162     0.25000000
     0.16173566     0.28007889     0.25000000
     0.20315577     0.32741617     0.25000000
     0.24457589     0.37475345     0.25000000
     0.28599601     0.42209073     0.25000000
     0.32741613     0.46942801     0.25000000
     0.36883625     0.51676529     0.25000000
     0.41025637     0.56410256     0.25000000
     0.45167648     0.61143984     0.25000000
     0.49309660     0.65877712     0.25000000
     0.53451672     0.70611440     0.25000000
     0.57593684     0.75345168     0.25000000
     0.61735696     0.80078895     0.25000000
     0.65877708     0.84812623     0.25000000
     0.70019719     0.89546351     0.25000000
     0.74161731     0.94280079     0.25000000
     0.78303743     0.99013807     0.25000000
     0.04339246     0.00197239     0.25000000
     0.08481258     0.04930966     0.25000000
     0.12623270     0.09664694     0.25000000
     0.16765282     0.14398422     0.25000000
     0.20907293     0.19132150     0.25000000
     0.25049305     0.23865878     0.25000000
     0.29191317     0.28599605     0.25000000
     0.33333329     0.33333333     0.25000000
     0.37475341     0.38067061     0.25000000
     0.41617353     0.42800789     0.25000000
     0.45759364     0.47534517     0.25000000
     0.49901376     0.52268245     0.25000000
     0.54043388     0.57001972     0.25000000
     0.58185400     0.61735700     0.25000000
     0.62327412     0.66469428     0.25000000
     0.66469424     0.71203156     0.25000000
     0.70611435     0.75936884     0.25000000
     0.74753447     0.80670611     0.25000000
     0.78895459     0.85404339     0.25000000
     0.83037471     0.90138067     0.25000000
     0.87179483     0.94871795     0.25000000
     0.91321495     0.99605523     0.25000000
     0.17356998     0.00788955     0.25000000
     0.21499009     0.05522682     0.25000000
     0.25641021     0.10256410     0.25000000
     0.29783033     0.14990138     0.25000000
     0.33925045     0.19723866     0.25000000
     0.38067057     0.24457594     0.25000000
     0.42209069     0.29191321     0.25000000
     0.46351080     0.33925049     0.25000000
     0.50493092     0.38658777     0.25000000
     0.54635104     0.43392505     0.25000000
     0.58777116     0.48126233     0.25000000
     0.62919128     0.52859960     0.25000000
     0.67061140     0.57593688     0.25000000
     0.71203151     0.62327416     0.25000000
     0.75345163     0.67061144     0.25000000
     0.79487175     0.71794872     0.25000000
     0.83629187     0.76528600     0.25000000
     0.87771199     0.81262327     0.25000000
     0.91913211     0.85996055     0.25000000
     0.96055222     0.90729783     0.25000000
     1.00197234     0.95463511     0.25000000
     0.30374749     0.01380671     0.25000000
     0.34516761     0.06114398     0.25000000
     0.38658773     0.10848126     0.25000000
     0.42800785     0.15581854     0.25000000
     0.46942796     0.20315582     0.25000000
     0.51084808     0.25049310     0.25000000
     0.55226820     0.29783037     0.25000000
     0.59368832     0.34516765     0.25000000
     0.63510844     0.39250493     0.25000000
     0.67652856     0.43984221     0.25000000
     0.71794867     0.48717949     0.25000000
     0.75936879     0.53451676     0.25000000
     0.80078891     0.58185404     0.25000000
     0.84220903     0.62919132     0.25000000
     0.88362915     0.67652860     0.25000000
     0.92504927     0.72386588     0.25000000
     0.96646938     0.77120316     0.25000000
     1.00788950     0.81854043     0.25000000
     0.43392501     0.01972387     0.25000000
     0.47534512     0.06706114     0.25000000
     0.51676524     0.11439842     0.25000000
     0.55818536     0.16173570     0.25000000
     0.59960548     0.20907298     0.25000000
     0.64102560     0.25641026     0.25000000
     0.68244572     0.30374753     0.25000000
     0.72386583     0.35108481     0.25000000
     0.76528595     0.39842209     0.25000000
     0.80670607     0.44575937     0.25000000
     0.84812619     0.49309665     0.25000000
     0.88954631     0.54043392     0.25000000
     0.93096643     0.58777120     0.25000000
     0.97238654     0.63510848     0.25000000
     1.01380666     0.68244576     0.25000000
     0.56410252     0.02564102     0.25000000