h-BN                                    
1.0
        2.5124847889         0.0000000000         0.0000000000
        1.2562425393         2.1758755702         0.0000000000
        0.0000000000         0.0000000000        12.0000000000
    B    N
    1    1
Direct
     0.000000000         0.000000000         0.500000000
     0.333332986         0.333333015         0.500000000

