Graphene                                
1.0
        2.4689238071         0.0000000000         0.0000000000
        1.2344620459         2.1381506548         0.0000000000
        0.0000000000         0.0000000000        12.0000000000
    C
    2
Direct
     0.000000000         0.000000000         0.500000000
     0.333332986         0.333333015         0.500000000

