b-P                                     
   1.00000000000000     
     3.3127515648016899    0.0000000000000000    0.0000000000000000
     0.0000000000000000    4.5034011443962401    0.0000000000000000
     0.0000000000000000    0.0000000000000000   14.1062415965682018
   P 
     4
Direct
  0.0000000000000000  0.5843072250013770  0.5753691339114505
  0.0000000000000000  0.4156927749986229  0.4246308660885495
  0.5000000000000000  0.0843072170013764  0.4246308660885495
  0.5000000000000000  0.9156927749986230  0.5753691339114505