Generated by Twist2D
    1.0
      46.37852191       0.00000000       0.00000000
       0.00000000      36.02720916       0.00000000
       0.00000000       0.00000000      20.00000000
    P
    900
Direct
     0.00000000     0.07303840     0.20631752
     0.00000000     0.19803840     0.20631752
     0.00000000     0.32303840     0.20631752
     0.00000000     0.44803840     0.20631752
     0.00000000     0.57303840     0.20631752
     0.00000000     0.69803840     0.20631752
     0.00000000     0.82303840     0.20631752
     0.00000000     0.94803840     0.20631752
     0.07142857     0.07303840     0.20631752
     0.07142857     0.19803840     0.20631752
     0.07142857     0.32303840     0.20631752
     0.07142857     0.44803840     0.20631752
     0.07142857     0.57303840     0.20631752
     0.07142857     0.69803840     0.20631752
     0.07142857     0.82303840     0.20631752
     0.07142857     0.94803840     0.20631752
     0.14285714     0.07303840     0.20631752
     0.14285714     0.19803840     0.20631752
     0.14285714     0.32303840     0.20631752
     0.14285714     0.44803840     0.20631752
     0.14285714     0.57303840     0.20631752
     0.14285714     0.69803840     0.20631752
     0.14285714     0.82303840     0.20631752
     0.14285714     0.94803840     0.20631752
     0.21428571     0.07303840     0.20631752
     0.21428571     0.19803840     0.20631752
     0.21428571     0.32303840     0.20631752
     0.21428571     0.44803840     0.20631752
     0.21428571     0.57303840     0.20631752
     0.21428571     0.69803840     0.20631752
     0.21428571     0.82303840     0.20631752
     0.21428571     0.94803840     0.20631752
     0.28571429     0.07303840     0.20631752
     0.28571429     0.19803840     0.20631752
     0.28571429     0.32303840     0.20631752
     0.28571429     0.44803840     0.20631752
     0.28571429     0.57303840     0.20631752
     0.28571429     0.69803840     0.20631752
     0.28571429     0.82303840     0.20631752
     0.28571429     0.94803840     0.20631752
     0.35714286     0.07303840     0.20631752
     0.35714286     0.19803840     0.20631752
     0.35714286     0.32303840     0.20631752
     0.35714286     0.44803840     0.20631752
     0.35714286     0.57303840     0.20631752
     0.35714286     0.69803840     0.20631752
     0.35714286     0.82303840     0.20631752
     0.35714286     0.94803840     0.20631752
     0.42857143     0.07303840     0.20631752
     0.42857143     0.19803840     0.20631752
     0.42857143     0.32303840     0.20631752
     0.42857143     0.44803840     0.20631752
     0.42857143     0.57303840     0.20631752
     0.42857143     0.69803840     0.20631752
     0.42857143     0.82303840     0.20631752
     0.42857143     0.94803840     0.20631752
     0.50000000     0.07303840     0.20631752
     0.50000000     0.19803840     0.20631752
     0.50000000     0.32303840     0.20631752
     0.50000000     0.44803840     0.20631752
     0.50000000     0.57303840     0.20631752
     0.50000000     0.69803840     0.20631752
     0.50000000     0.82303840     0.20631752
     0.50000000     0.94803840     0.20631752
     0.57142857     0.07303840     0.20631752
     0.57142857     0.19803840     0.20631752
     0.57142857     0.32303840     0.20631752
     0.57142857     0.44803840     0.20631752
     0.57142857     0.57303840     0.20631752
     0.57142857     0.69803840     0.20631752
     0.57142857     0.82303840     0.20631752
     0.57142857     0.94803840     0.20631752
     0.64285714     0.07303840     0.20631752
     0.64285714     0.19803840     0.20631752
     0.64285714     0.32303840     0.20631752
     0.64285714     0.44803840     0.20631752
     0.64285714     0.57303840     0.20631752
     0.64285714     0.69803840     0.20631752
     0.64285714     0.82303840     0.20631752
     0.64285714     0.94803840     0.20631752
     0.71428571     0.07303840     0.20631752
     0.71428571     0.19803840     0.20631752
     0.71428571     0.32303840     0.20631752
     0.71428571     0.44803840     0.20631752
     0.71428571     0.57303840     0.20631752
     0.71428571     0.69803840     0.20631752
     0.71428571     0.82303840     0.20631752
     0.71428571     0.94803840     0.20631752
     0.78571429     0.07303840     0.20631752
     0.78571429     0.19803840     0.20631752
     0.78571429     0.32303840     0.20631752
     0.78571429     0.44803840     0.20631752
     0.78571429     0.57303840     0.20631752
     0.78571429     0.69803840     0.20631752
     0.78571429     0.82303840     0.20631752
     0.78571429     0.94803840     0.20631752
     0.85714286     0.07303840     0.20631752
     0.85714286     0.19803840     0.20631752
     0.85714286     0.32303840     0.20631752
     0.85714286     0.44803840     0.20631752
     0.85714286     0.57303840     0.20631752
     0.85714286     0.69803840     0.20631752
     0.85714286     0.82303840     0.20631752
     0.85714286     0.94803840     0.20631752
     0.92857143     0.07303840     0.20631752
     0.92857143     0.19803840     0.20631752
     0.92857143     0.32303840     0.20631752
     0.92857143     0.44803840     0.20631752
     0.92857143     0.57303840     0.20631752
     0.92857143     0.69803840     0.20631752
     0.92857143     0.82303840     0.20631752
     0.92857143     0.94803840     0.20631752
     0.00000000     0.05196160     0.10000000
     0.00000000     0.17696160     0.10000000
     0.00000000     0.30196160     0.10000000
     0.00000000     0.42696160     0.10000000
     0.00000000     0.55196160     0.10000000
     0.00000000     0.67696160     0.10000000
     0.00000000     0.80196160     0.10000000
     0.00000000     0.92696160     0.10000000
     0.07142857     0.05196160     0.10000000
     0.07142857     0.17696160     0.10000000
     0.07142857     0.30196160     0.10000000
     0.07142857     0.42696160     0.10000000
     0.07142857     0.55196160     0.10000000
     0.07142857     0.67696160     0.10000000
     0.07142857     0.80196160     0.10000000
     0.07142857     0.92696160     0.10000000
     0.14285714     0.05196160     0.10000000
     0.14285714     0.17696160     0.10000000
     0.14285714     0.30196160     0.10000000
     0.14285714     0.42696160     0.10000000
     0.14285714     0.55196160     0.10000000
     0.14285714     0.67696160     0.10000000
     0.14285714     0.80196160     0.10000000
     0.14285714     0.92696160     0.10000000
     0.21428571     0.05196160     0.10000000
     0.21428571     0.17696160     0.10000000
     0.21428571     0.30196160     0.10000000
     0.21428571     0.42696160     0.10000000
     0.21428571     0.55196160     0.10000000
     0.21428571     0.67696160     0.10000000
     0.21428571     0.80196160     0.10000000
     0.21428571     0.92696160     0.10000000
     0.28571429     0.05196160     0.10000000
     0.28571429     0.17696160     0.10000000
     0.28571429     0.30196160     0.10000000
     0.28571429     0.42696160     0.10000000
     0.28571429     0.55196160     0.10000000
     0.28571429     0.67696160     0.10000000
     0.28571429     0.80196160     0.10000000
     0.28571429     0.92696160     0.10000000
     0.35714286     0.05196160     0.10000000
     0.35714286     0.17696160     0.10000000
     0.35714286     0.30196160     0.10000000
     0.35714286     0.42696160     0.10000000
     0.35714286     0.55196160     0.10000000
     0.35714286     0.67696160     0.10000000
     0.35714286     0.80196160     0.10000000
     0.35714286     0.92696160     0.10000000
     0.42857143     0.05196160     0.10000000
     0.42857143     0.17696160     0.10000000
     0.42857143     0.30196160     0.10000000
     0.42857143     0.42696160     0.10000000
     0.42857143     0.55196160     0.10000000
     0.42857143     0.67696160     0.10000000
     0.42857143     0.80196160     0.10000000
     0.42857143     0.92696160     0.10000000
     0.50000000     0.05196160     0.10000000
     0.50000000     0.17696160     0.10000000
     0.50000000     0.30196160     0.10000000
     0.50000000     0.42696160     0.10000000
     0.50000000     0.55196160     0.10000000
     0.50000000     0.67696160     0.10000000
     0.50000000     0.80196160     0.10000000
     0.50000000     0.92696160     0.10000000
     0.57142857     0.05196160     0.10000000
     0.57142857     0.17696160     0.10000000
     0.57142857     0.30196160     0.10000000
     0.57142857     0.42696160     0.10000000
     0.57142857     0.55196160     0.10000000
     0.57142857     0.67696160     0.10000000
     0.57142857     0.80196160     0.10000000
     0.57142857     0.92696160     0.10000000
     0.64285714     0.05196160     0.10000000
     0.64285714     0.17696160     0.10000000
     0.64285714     0.30196160     0.10000000
     0.64285714     0.42696160     0.10000000
     0.64285714     0.55196160     0.10000000
     0.64285714     0.67696160     0.10000000
     0.64285714     0.80196160     0.10000000
     0.64285714     0.92696160     0.10000000
     0.71428571     0.05196160     0.10000000
     0.71428571     0.17696160     0.10000000
     0.71428571     0.30196160     0.10000000
     0.71428571     0.42696160     0.10000000
     0.71428571     0.55196160     0.10000000
     0.71428571     0.67696160     0.10000000
     0.71428571     0.80196160     0.10000000
     0.71428571     0.92696160     0.10000000
     0.78571429     0.05196160     0.10000000
     0.78571429     0.17696160     0.10000000
     0.78571429     0.30196160     0.10000000
     0.78571429     0.42696160     0.10000000
     0.78571429     0.55196160     0.10000000
     0.78571429     0.67696160     0.10000000
     0.78571429     0.80196160     0.10000000
     0.78571429     0.92696160     0.10000000
     0.85714286     0.05196160     0.10000000
     0.85714286     0.17696160     0.10000000
     0.85714286     0.30196160     0.10000000
     0.85714286     0.42696160     0.10000000
     0.85714286     0.55196160     0.10000000
     0.85714286     0.67696160     0.10000000
     0.85714286     0.80196160     0.10000000
     0.85714286     0.92696160     0.10000000
     0.92857143     0.05196160     0.10000000
     0.92857143     0.17696160     0.10000000
     0.92857143     0.30196160     0.10000000
     0.92857143     0.42696160     0.10000000
     0.92857143     0.55196160     0.10000000
     0.92857143     0.67696160     0.10000000
     0.92857143     0.80196160     0.10000000
     0.92857143     0.92696160     0.10000000
     0.03571429     0.01053840     0.10000000
     0.03571429     0.13553840     0.10000000
     0.03571429     0.26053840     0.10000000
     0.03571429     0.38553840     0.10000000
     0.03571429     0.51053840     0.10000000
     0.03571429     0.63553840     0.10000000
     0.03571429     0.76053840     0.10000000
     0.03571429     0.88553840     0.10000000
     0.10714286     0.01053840     0.10000000
     0.10714286     0.13553840     0.10000000
     0.10714286     0.26053840     0.10000000
     0.10714286     0.38553840     0.10000000
     0.10714286     0.51053840     0.10000000
     0.10714286     0.63553840     0.10000000
     0.10714286     0.76053840     0.10000000
     0.10714286     0.88553840     0.10000000
     0.17857143     0.01053840     0.10000000
     0.17857143     0.13553840     0.10000000
     0.17857143     0.26053840     0.10000000
     0.17857143     0.38553840     0.10000000
     0.17857143     0.51053840     0.10000000
     0.17857143     0.63553840     0.10000000
     0.17857143     0.76053840     0.10000000
     0.17857143     0.88553840     0.10000000
     0.25000000     0.01053840     0.10000000
     0.25000000     0.13553840     0.10000000
     0.25000000     0.26053840     0.10000000
     0.25000000     0.38553840     0.10000000
     0.25000000     0.51053840     0.10000000
     0.25000000     0.63553840     0.10000000
     0.25000000     0.76053840     0.10000000
     0.25000000     0.88553840     0.10000000
     0.32142857     0.01053840     0.10000000
     0.32142857     0.13553840     0.10000000
     0.32142857     0.26053840     0.10000000
     0.32142857     0.38553840     0.10000000
     0.32142857     0.51053840     0.10000000
     0.32142857     0.63553840     0.10000000
     0.32142857     0.76053840     0.10000000
     0.32142857     0.88553840     0.10000000
     0.39285714     0.01053840     0.10000000
     0.39285714     0.13553840     0.10000000
     0.39285714     0.26053840     0.10000000
     0.39285714     0.38553840     0.10000000
     0.39285714     0.51053840     0.10000000
     0.39285714     0.63553840     0.10000000
     0.39285714     0.76053840     0.10000000
     0.39285714     0.88553840     0.10000000
     0.46428571     0.01053840     0.10000000
     0.46428571     0.13553840     0.10000000
     0.46428571     0.26053840     0.10000000
     0.46428571     0.38553840     0.10000000
     0.46428571     0.51053840     0.10000000
     0.46428571     0.63553840     0.10000000
     0.46428571     0.76053840     0.10000000
     0.46428571     0.88553840     0.10000000
     0.53571429     0.01053840     0.10000000
     0.53571429     0.13553840     0.10000000
     0.53571429     0.26053840     0.10000000
     0.53571429     0.38553840     0.10000000
     0.53571429     0.51053840     0.10000000
     0.53571429     0.63553840     0.10000000
     0.53571429     0.76053840     0.10000000
     0.53571429     0.88553840     0.10000000
     0.60714286     0.01053840     0.10000000
     0.60714286     0.13553840     0.10000000
     0.60714286     0.26053840     0.10000000
     0.60714286     0.38553840     0.10000000
     0.60714286     0.51053840     0.10000000
     0.60714286     0.63553840     0.10000000
     0.60714286     0.76053840     0.10000000
     0.60714286     0.88553840     0.10000000
     0.67857143     0.01053840     0.10000000
     0.67857143     0.13553840     0.10000000
     0.67857143     0.26053840     0.10000000
     0.67857143     0.38553840     0.10000000
     0.67857143     0.51053840     0.10000000
     0.67857143     0.63553840     0.10000000
     0.67857143     0.76053840     0.10000000
     0.67857143     0.88553840     0.10000000
     0.75000000     0.01053840     0.10000000
     0.75000000     0.13553840     0.10000000
     0.75000000     0.26053840     0.10000000
     0.75000000     0.38553840     0.10000000
     0.75000000     0.51053840     0.10000000
     0.75000000     0.63553840     0.10000000
     0.75000000     0.76053840     0.10000000
     0.75000000     0.88553840     0.10000000
     0.82142857     0.01053840     0.10000000
     0.82142857     0.13553840     0.10000000
     0.82142857     0.26053840     0.10000000
     0.82142857     0.38553840     0.10000000
     0.82142857     0.51053840     0.10000000
     0.82142857     0.63553840     0.10000000
     0.82142857     0.76053840     0.10000000
     0.82142857     0.88553840     0.10000000
     0.89285714     0.01053840     0.10000000
     0.89285714     0.13553840     0.10000000
     0.89285714     0.26053840     0.10000000
     0.89285714     0.38553840     0.10000000
     0.89285714     0.51053840     0.10000000
     0.89285714     0.63553840     0.10000000
     0.89285714     0.76053840     0.10000000
     0.89285714     0.88553840     0.10000000
     0.96428571     0.01053840     0.10000000
     0.96428571     0.13553840     0.10000000
     0.96428571     0.26053840     0.10000000
     0.96428571     0.38553840     0.10000000
     0.96428571     0.51053840     0.10000000
     0.96428571     0.63553840     0.10000000
     0.96428571     0.76053840     0.10000000
     0.96428571     0.88553840     0.10000000
     0.03571429     0.11446160     0.20631752
     0.03571429     0.23946160     0.20631752
     0.03571429     0.36446160     0.20631752
     0.03571429     0.48946160     0.20631752
     0.03571429     0.61446160     0.20631752
     0.03571429     0.73946160     0.20631752
     0.03571429     0.86446160     0.20631752
     0.03571429     0.98946160     0.20631752
     0.10714286     0.11446160     0.20631752
     0.10714286     0.23946160     0.20631752
     0.10714286     0.36446160     0.20631752
     0.10714286     0.48946160     0.20631752
     0.10714286     0.61446160     0.20631752
     0.10714286     0.73946160     0.20631752
     0.10714286     0.86446160     0.20631752
     0.10714286     0.98946160     0.20631752
     0.17857143     0.11446160     0.20631752
     0.17857143     0.23946160     0.20631752
     0.17857143     0.36446160     0.20631752
     0.17857143     0.48946160     0.20631752
     0.17857143     0.61446160     0.20631752
     0.17857143     0.73946160     0.20631752
     0.17857143     0.86446160     0.20631752
     0.17857143     0.98946160     0.20631752
     0.25000000     0.11446160     0.20631752
     0.25000000     0.23946160     0.20631752
     0.25000000     0.36446160     0.20631752
     0.25000000     0.48946160     0.20631752
     0.25000000     0.61446160     0.20631752
     0.25000000     0.73946160     0.20631752
     0.25000000     0.86446160     0.20631752
     0.25000000     0.98946160     0.20631752
     0.32142857     0.11446160     0.20631752
     0.32142857     0.23946160     0.20631752
     0.32142857     0.36446160     0.20631752
     0.32142857     0.48946160     0.20631752
     0.32142857     0.61446160     0.20631752
     0.32142857     0.73946160     0.20631752
     0.32142857     0.86446160     0.20631752
     0.32142857     0.98946160     0.20631752
     0.39285714     0.11446160     0.20631752
     0.39285714     0.23946160     0.20631752
     0.39285714     0.36446160     0.20631752
     0.39285714     0.48946160     0.20631752
     0.39285714     0.61446160     0.20631752
     0.39285714     0.73946160     0.20631752
     0.39285714     0.86446160     0.20631752
     0.39285714     0.98946160     0.20631752
     0.46428571     0.11446160     0.20631752
     0.46428571     0.23946160     0.20631752
     0.46428571     0.36446160     0.20631752
     0.46428571     0.48946160     0.20631752
     0.46428571     0.61446160     0.20631752
     0.46428571     0.73946160     0.20631752
     0.46428571     0.86446160     0.20631752
     0.46428571     0.98946160     0.20631752
     0.53571429     0.11446160     0.20631752
     0.53571429     0.23946160     0.20631752
     0.53571429     0.36446160     0.20631752
     0.53571429     0.48946160     0.20631752
     0.53571429     0.61446160     0.20631752
     0.53571429     0.73946160     0.20631752
     0.53571429     0.86446160     0.20631752
     0.53571429     0.98946160     0.20631752
     0.60714286     0.11446160     0.20631752
     0.60714286     0.23946160     0.20631752
     0.60714286     0.36446160     0.20631752
     0.60714286     0.48946160     0.20631752
     0.60714286     0.61446160     0.20631752
     0.60714286     0.73946160     0.20631752
     0.60714286     0.86446160     0.20631752
     0.60714286     0.98946160     0.20631752
     0.67857143     0.11446160     0.20631752
     0.67857143     0.23946160     0.20631752
     0.67857143     0.36446160     0.20631752
     0.67857143     0.48946160     0.20631752
     0.67857143     0.61446160     0.20631752
     0.67857143     0.73946160     0.20631752
     0.67857143     0.86446160     0.20631752
     0.67857143     0.98946160     0.20631752
     0.75000000     0.11446160     0.20631752
     0.75000000     0.23946160     0.20631752
     0.75000000     0.36446160     0.20631752
     0.75000000     0.48946160     0.20631752
     0.75000000     0.61446160     0.20631752
     0.75000000     0.73946160     0.20631752
     0.75000000     0.86446160     0.20631752
     0.75000000     0.98946160     0.20631752
     0.82142857     0.11446160     0.20631752
     0.82142857     0.23946160     0.20631752
     0.82142857     0.36446160     0.20631752
     0.82142857     0.48946160     0.20631752
     0.82142857     0.61446160     0.20631752
     0.82142857     0.73946160     0.20631752
     0.82142857     0.86446160     0.20631752
     0.82142857     0.98946160     0.20631752
     0.89285714     0.11446160     0.20631752
     0.89285714     0.23946160     0.20631752
     0.89285714     0.36446160     0.20631752
     0.89285714     0.48946160     0.20631752
     0.89285714     0.61446160     0.20631752
     0.89285714     0.73946160     0.20631752
     0.89285714     0.86446160     0.20631752
     0.89285714     0.98946160     0.20631752
     0.96428571     0.11446160     0.20631752
     0.96428571     0.23946160     0.20631752
     0.96428571     0.36446160     0.20631752
     0.96428571     0.48946160     0.20631752
     0.96428571     0.61446160     0.20631752
     0.96428571     0.73946160     0.20631752
     0.96428571     0.86446160     0.20631752
     0.96428571     0.98946160     0.20631752
    -0.00517086     0.07239205     0.46263504
     0.06562560     0.08124160     0.46263504
     0.05677604     0.20513541     0.46263504
     0.04792648     0.32902921     0.46263504
     0.03907693     0.45292302     0.46263504
     0.03022737     0.57681682     0.46263504
     0.02137781     0.70071063     0.46263504
     0.01252825     0.82460443     0.46263504
     0.00367870     0.94849824     0.46263504
     0.13642206     0.09009116     0.46263504
     0.12757250     0.21398497     0.46263504
     0.11872294     0.33787877     0.46263504
     0.10987339     0.46177258     0.46263504
     0.10102383     0.58566638     0.46263504
     0.09217427     0.70956019     0.46263504
     0.08332471     0.83345399     0.46263504
     0.07447516     0.95734780     0.46263504
     0.20721852     0.09894072     0.46263504
     0.19836896     0.22283452     0.46263504
     0.18951941     0.34672833     0.46263504
     0.18066985     0.47062213     0.46263504
     0.17182029     0.59451594     0.46263504
     0.16297073     0.71840974     0.46263504
     0.15412117     0.84230355     0.46263504
     0.14527162     0.96619736     0.46263504
     0.27801498     0.10779028     0.46263504
     0.26916542     0.23168408     0.46263504
     0.26031587     0.35557789     0.46263504
     0.25146631     0.47947169     0.46263504
     0.24261675     0.60336550     0.46263504
     0.23376719     0.72725930     0.46263504
     0.22491764     0.85115311     0.46263504
     0.21606808     0.97504691     0.46263504
     0.34881144     0.11663983     0.46263504
     0.33996188     0.24053364     0.46263504
     0.33111233     0.36442744     0.46263504
     0.32226277     0.48832125     0.46263504
     0.31341321     0.61221505     0.46263504
     0.30456365     0.73610886     0.46263504
     0.29571410     0.86000267     0.46263504
     0.28686454     0.98389647     0.46263504
     0.41960790     0.12548939     0.46263504
     0.41075834     0.24938320     0.46263504
     0.40190879     0.37327700     0.46263504
     0.39305923     0.49717081     0.46263504
     0.38420967     0.62106461     0.46263504
     0.37536011     0.74495842     0.46263504
     0.36651056     0.86885222     0.46263504
     0.35766100     0.99274603     0.46263504
     0.49040436     0.13433895     0.46263504
     0.48155480     0.25823275     0.46263504
     0.47270525     0.38212656     0.46263504
     0.46385569     0.50602036     0.46263504
     0.45500613     0.62991417     0.46263504
     0.44615657     0.75380797     0.46263504
     0.43730702     0.87770178     0.46263504
     0.42845746     1.00159559     0.46263504
     0.56120082     0.14318851     0.46263504
     0.55235126     0.26708231     0.46263504
     0.54350171     0.39097612     0.46263504
     0.53465215     0.51486992     0.46263504
     0.52580259     0.63876373     0.46263504
     0.51695303     0.76265753     0.46263504
     0.50810348     0.88655134     0.46263504
     0.49925392     1.01044514     0.46263504
     0.63199728     0.15203806     0.46263504
     0.62314772     0.27593187     0.46263504
     0.61429817     0.39982567     0.46263504
     0.60544861     0.52371948     0.46263504
     0.59659905     0.64761328     0.46263504
     0.58774949     0.77150709     0.46263504
     0.57889994     0.89540090     0.46263504
     0.57005038     1.01929470     0.46263504
     0.70279374     0.16088762     0.46263504
     0.69394418     0.28478143     0.46263504
     0.68509463     0.40867523     0.46263504
     0.67624507     0.53256904     0.46263504
     0.66739551     0.65646284     0.46263504
     0.65854595     0.78035665     0.46263504
     0.64969640     0.90425045     0.46263504
     0.64084684     1.02814426     0.46263504
     0.77359020     0.16973718     0.46263504
     0.76474064     0.29363098     0.46263504
     0.75589109     0.41752479     0.46263504
     0.74704153     0.54141859     0.46263504
     0.73819197     0.66531240     0.46263504
     0.72934241     0.78920620     0.46263504
     0.72049286     0.91310001     0.46263504
     0.71164330     1.03699382     0.46263504
     0.84438666     0.17858674     0.46263504
     0.83553710     0.30248054     0.46263504
     0.82668755     0.42637435     0.46263504
     0.81783799     0.55026815     0.46263504
     0.80898843     0.67416196     0.46263504
     0.80013887     0.79805576     0.46263504
     0.79128932     0.92194957     0.46263504
     0.78243976     1.04584337     0.46263504
     0.91518312     0.18743629     0.46263504
     0.90633356     0.31133010     0.46263504
     0.89748401     0.43522390     0.46263504
     0.88863445     0.55911771     0.46263504
     0.87978489     0.68301151     0.46263504
     0.87093533     0.80690532     0.46263504
     0.86208578     0.93079913     0.46263504
     0.85323622     1.05469293     0.46263504
     0.98597958     0.19628585     0.46263504
     0.97713002     0.32017966     0.46263504
     0.96828047     0.44407346     0.46263504
     0.95943091     0.56796727     0.46263504
     0.95058135     0.69186107     0.46263504
     0.94173179     0.81575488     0.46263504
     0.93288224     0.93964868     0.46263504
     0.92403268     1.06354249     0.46263504
    -0.00367870     0.05150176     0.35631752
     0.06711776     0.06035132     0.35631752
     0.05826821     0.18424512     0.35631752
     0.04941865     0.30813893     0.35631752
     0.04056909     0.43203273     0.35631752
     0.03171953     0.55592654     0.35631752
     0.02286998     0.67982034     0.35631752
     0.01402042     0.80371415     0.35631752
     0.00517086     0.92760795     0.35631752
     0.13791422     0.06920087     0.35631752
     0.12906467     0.19309468     0.35631752
     0.12021511     0.31698849     0.35631752
     0.11136555     0.44088229     0.35631752
     0.10251599     0.56477610     0.35631752
     0.09366644     0.68866990     0.35631752
     0.08481688     0.81256371     0.35631752
     0.07596732     0.93645751     0.35631752
     0.20871068     0.07805043     0.35631752
     0.19986113     0.20194424     0.35631752
     0.19101157     0.32583804     0.35631752
     0.18216201     0.44973185     0.35631752
     0.17331245     0.57362565     0.35631752
     0.16446290     0.69751946     0.35631752
     0.15561334     0.82141326     0.35631752
     0.14676378     0.94530707     0.35631752
     0.27950714     0.08689999     0.35631752
     0.27065759     0.21079380     0.35631752
     0.26180803     0.33468760     0.35631752
     0.25295847     0.45858141     0.35631752
     0.24410891     0.58247521     0.35631752
     0.23525936     0.70636902     0.35631752
     0.22640980     0.83026282     0.35631752
     0.21756024     0.95415663     0.35631752
     0.35030360     0.09574955     0.35631752
     0.34145405     0.21964335     0.35631752
     0.33260449     0.34353716     0.35631752
     0.32375493     0.46743096     0.35631752
     0.31490537     0.59132477     0.35631752
     0.30605582     0.71521857     0.35631752
     0.29720626     0.83911238     0.35631752
     0.28835670     0.96300618     0.35631752
     0.42110006     0.10459910     0.35631752
     0.41225051     0.22849291     0.35631752
     0.40340095     0.35238672     0.35631752
     0.39455139     0.47628052     0.35631752
     0.38570183     0.60017433     0.35631752
     0.37685228     0.72406813     0.35631752
     0.36800272     0.84796194     0.35631752
     0.35915316     0.97185574     0.35631752
     0.49189652     0.11344866     0.35631752
     0.48304697     0.23734247     0.35631752
     0.47419741     0.36123627     0.35631752
     0.46534785     0.48513008     0.35631752
     0.45649829     0.60902388     0.35631752
     0.44764874     0.73291769     0.35631752
     0.43879918     0.85681149     0.35631752
     0.42994962     0.98070530     0.35631752
     0.56269298     0.12229822     0.35631752
     0.55384343     0.24619203     0.35631752
     0.54499387     0.37008583     0.35631752
     0.53614431     0.49397964     0.35631752
     0.52729475     0.61787344     0.35631752
     0.51844520     0.74176725     0.35631752
     0.50959564     0.86566105     0.35631752
     0.50074608     0.98955486     0.35631752
     0.63348944     0.13114778     0.35631752
     0.62463989     0.25504158     0.35631752
     0.61579033     0.37893539     0.35631752
     0.60694077     0.50282919     0.35631752
     0.59809121     0.62672300     0.35631752
     0.58924166     0.75061680     0.35631752
     0.58039210     0.87451061     0.35631752
     0.57154254     0.99840441     0.35631752
     0.70428590     0.13999733     0.35631752
     0.69543635     0.26389114     0.35631752
     0.68658679     0.38778495     0.35631752
     0.67773723     0.51167875     0.35631752
     0.66888767     0.63557256     0.35631752
     0.66003812     0.75946636     0.35631752
     0.65118856     0.88336017     0.35631752
     0.64233900     1.00725397     0.35631752
     0.77508236     0.14884689     0.35631752
     0.76623281     0.27274070     0.35631752
     0.75738325     0.39663450     0.35631752
     0.74853369     0.52052831     0.35631752
     0.73968413     0.64442211     0.35631752