Generated by Twist2D
    1.0
     39.75301878     0.00000000     0.00000000
     0.00000000     26.50201252     0.00000000
     0.00000000     0.00000000     20.00000000
    P
    604
Direct
     0.00000000     0.09738454     0.20631752
     0.00000000     0.26405120     0.20631752
     0.00000000     0.43071787     0.20631752
     0.00000000     0.59738454     0.20631752
     0.00000000     0.76405120     0.20631752
     0.00000000     0.93071787     0.20631752
     0.08333333     0.09738454     0.20631752
     0.08333333     0.26405120     0.20631752
     0.08333333     0.43071787     0.20631752
     0.08333333     0.59738454     0.20631752
     0.08333333     0.76405120     0.20631752
     0.08333333     0.93071787     0.20631752
     0.16666667     0.09738454     0.20631752
     0.16666667     0.26405120     0.20631752
     0.16666667     0.43071787     0.20631752
     0.16666667     0.59738454     0.20631752
     0.16666667     0.76405120     0.20631752
     0.16666667     0.93071787     0.20631752
     0.25000000     0.09738454     0.20631752
     0.25000000     0.26405120     0.20631752
     0.25000000     0.43071787     0.20631752
     0.25000000     0.59738454     0.20631752
     0.25000000     0.76405120     0.20631752
     0.25000000     0.93071787     0.20631752
     0.33333333     0.09738454     0.20631752
     0.33333333     0.26405120     0.20631752
     0.33333333     0.43071787     0.20631752
     0.33333333     0.59738454     0.20631752
     0.33333333     0.76405120     0.20631752
     0.33333333     0.93071787     0.20631752
     0.41666667     0.09738454     0.20631752
     0.41666667     0.26405120     0.20631752
     0.41666667     0.43071787     0.20631752
     0.41666667     0.59738454     0.20631752
     0.41666667     0.76405120     0.20631752
     0.41666667     0.93071787     0.20631752
     0.50000000     0.09738454     0.20631752
     0.50000000     0.26405120     0.20631752
     0.50000000     0.43071787     0.20631752
     0.50000000     0.59738454     0.20631752
     0.50000000     0.76405120     0.20631752
     0.50000000     0.93071787     0.20631752
     0.58333333     0.09738454     0.20631752
     0.58333333     0.26405120     0.20631752
     0.58333333     0.43071787     0.20631752
     0.58333333     0.59738454     0.20631752
     0.58333333     0.76405120     0.20631752
     0.58333333     0.93071787     0.20631752
     0.66666667     0.09738454     0.20631752
     0.66666667     0.26405120     0.20631752
     0.66666667     0.43071787     0.20631752
     0.66666667     0.59738454     0.20631752
     0.66666667     0.76405120     0.20631752
     0.66666667     0.93071787     0.20631752
     0.75000000     0.09738454     0.20631752
     0.75000000     0.26405120     0.20631752
     0.75000000     0.43071787     0.20631752
     0.75000000     0.59738454     0.20631752
     0.75000000     0.76405120     0.20631752
     0.75000000     0.93071787     0.20631752
     0.83333333     0.09738454     0.20631752
     0.83333333     0.26405120     0.20631752
     0.83333333     0.43071787     0.20631752
     0.83333333     0.59738454     0.20631752
     0.83333333     0.76405120     0.20631752
     0.83333333     0.93071787     0.20631752
     0.91666667     0.09738454     0.20631752
     0.91666667     0.26405120     0.20631752
     0.91666667     0.43071787     0.20631752
     0.91666667     0.59738454     0.20631752
     0.91666667     0.76405120     0.20631752
     0.91666667     0.93071787     0.20631752
     0.00000000     0.06928213     0.10000000
     0.00000000     0.23594880     0.10000000
     0.00000000     0.40261546     0.10000000
     0.00000000     0.56928213     0.10000000
     0.00000000     0.73594880     0.10000000
     0.00000000     0.90261546     0.10000000
     0.08333333     0.06928213     0.10000000
     0.08333333     0.23594880     0.10000000
     0.08333333     0.40261546     0.10000000
     0.08333333     0.56928213     0.10000000
     0.08333333     0.73594880     0.10000000
     0.08333333     0.90261546     0.10000000
     0.16666667     0.06928213     0.10000000
     0.16666667     0.23594880     0.10000000
     0.16666667     0.40261546     0.10000000
     0.16666667     0.56928213     0.10000000
     0.16666667     0.73594880     0.10000000
     0.16666667     0.90261546     0.10000000
     0.25000000     0.06928213     0.10000000
     0.25000000     0.23594880     0.10000000
     0.25000000     0.40261546     0.10000000
     0.25000000     0.56928213     0.10000000
     0.25000000     0.73594880     0.10000000
     0.25000000     0.90261546     0.10000000
     0.33333333     0.06928213     0.10000000
     0.33333333     0.23594880     0.10000000
     0.33333333     0.40261546     0.10000000
     0.33333333     0.56928213     0.10000000
     0.33333333     0.73594880     0.10000000
     0.33333333     0.90261546     0.10000000
     0.41666667     0.06928213     0.10000000
     0.41666667     0.23594880     0.10000000
     0.41666667     0.40261546     0.10000000
     0.41666667     0.56928213     0.10000000
     0.41666667     0.73594880     0.10000000
     0.41666667     0.90261546     0.10000000
     0.50000000     0.06928213     0.10000000
     0.50000000     0.23594880     0.10000000
     0.50000000     0.40261546     0.10000000
     0.50000000     0.56928213     0.10000000
     0.50000000     0.73594880     0.10000000
     0.50000000     0.90261546     0.10000000
     0.58333333     0.06928213     0.10000000
     0.58333333     0.23594880     0.10000000
     0.58333333     0.40261546     0.10000000
     0.58333333     0.56928213     0.10000000
     0.58333333     0.73594880     0.10000000
     0.58333333     0.90261546     0.10000000
     0.66666667     0.06928213     0.10000000
     0.66666667     0.23594880     0.10000000
     0.66666667     0.40261546     0.10000000
     0.66666667     0.56928213     0.10000000
     0.66666667     0.73594880     0.10000000
     0.66666667     0.90261546     0.10000000
     0.75000000     0.06928213     0.10000000
     0.75000000     0.23594880     0.10000000
     0.75000000     0.40261546     0.10000000
     0.75000000     0.56928213     0.10000000
     0.75000000     0.73594880     0.10000000
     0.75000000     0.90261546     0.10000000
     0.83333333     0.06928213     0.10000000
     0.83333333     0.23594880     0.10000000
     0.83333333     0.40261546     0.10000000
     0.83333333     0.56928213     0.10000000
     0.83333333     0.73594880     0.10000000
     0.83333333     0.90261546     0.10000000
     0.91666667     0.06928213     0.10000000
     0.91666667     0.23594880     0.10000000
     0.91666667     0.40261546     0.10000000
     0.91666667     0.56928213     0.10000000
     0.91666667     0.73594880     0.10000000
     0.91666667     0.90261546     0.10000000
     0.04166667     0.01405120     0.10000000
     0.04166667     0.18071787     0.10000000
     0.04166667     0.34738454     0.10000000
     0.04166667     0.51405120     0.10000000
     0.04166667     0.68071787     0.10000000
     0.04166667     0.84738454     0.10000000
     0.12500000     0.01405120     0.10000000
     0.12500000     0.18071787     0.10000000
     0.12500000     0.34738454     0.10000000
     0.12500000     0.51405120     0.10000000
     0.12500000     0.68071787     0.10000000
     0.12500000     0.84738454     0.10000000
     0.20833333     0.01405120     0.10000000
     0.20833333     0.18071787     0.10000000
     0.20833333     0.34738454     0.10000000
     0.20833333     0.51405120     0.10000000
     0.20833333     0.68071787     0.10000000
     0.20833333     0.84738454     0.10000000
     0.29166667     0.01405120     0.10000000
     0.29166667     0.18071787     0.10000000
     0.29166667     0.34738454     0.10000000
     0.29166667     0.51405120     0.10000000
     0.29166667     0.68071787     0.10000000
     0.29166667     0.84738454     0.10000000
     0.37500000     0.01405120     0.10000000
     0.37500000     0.18071787     0.10000000
     0.37500000     0.34738454     0.10000000
     0.37500000     0.51405120     0.10000000
     0.37500000     0.68071787     0.10000000
     0.37500000     0.84738454     0.10000000
     0.45833333     0.01405120     0.10000000
     0.45833333     0.18071787     0.10000000
     0.45833333     0.34738454     0.10000000
     0.45833333     0.51405120     0.10000000
     0.45833333     0.68071787     0.10000000
     0.45833333     0.84738454     0.10000000
     0.54166667     0.01405120     0.10000000
     0.54166667     0.18071787     0.10000000
     0.54166667     0.34738454     0.10000000
     0.54166667     0.51405120     0.10000000
     0.54166667     0.68071787     0.10000000
     0.54166667     0.84738454     0.10000000
     0.62500000     0.01405120     0.10000000
     0.62500000     0.18071787     0.10000000
     0.62500000     0.34738454     0.10000000
     0.62500000     0.51405120     0.10000000
     0.62500000     0.68071787     0.10000000
     0.62500000     0.84738454     0.10000000
     0.70833333     0.01405120     0.10000000
     0.70833333     0.18071787     0.10000000
     0.70833333     0.34738454     0.10000000
     0.70833333     0.51405120     0.10000000
     0.70833333     0.68071787     0.10000000
     0.70833333     0.84738454     0.10000000
     0.79166667     0.01405120     0.10000000
     0.79166667     0.18071787     0.10000000
     0.79166667     0.34738454     0.10000000
     0.79166667     0.51405120     0.10000000
     0.79166667     0.68071787     0.10000000
     0.79166667     0.84738454     0.10000000
     0.87500000     0.01405120     0.10000000
     0.87500000     0.18071787     0.10000000
     0.87500000     0.34738454     0.10000000
     0.87500000     0.51405120     0.10000000
     0.87500000     0.68071787     0.10000000
     0.87500000     0.84738454     0.10000000
     0.95833333     0.01405120     0.10000000
     0.95833333     0.18071787     0.10000000
     0.95833333     0.34738454     0.10000000
     0.95833333     0.51405120     0.10000000
     0.95833333     0.68071787     0.10000000
     0.95833333     0.84738454     0.10000000
     0.04166667     0.15261546     0.20631752
     0.04166667     0.31928213     0.20631752
     0.04166667     0.48594880     0.20631752
     0.04166667     0.65261546     0.20631752
     0.04166667     0.81928213     0.20631752
     0.04166667     0.98594880     0.20631752
     0.12500000     0.15261546     0.20631752
     0.12500000     0.31928213     0.20631752
     0.12500000     0.48594880     0.20631752
     0.12500000     0.65261546     0.20631752
     0.12500000     0.81928213     0.20631752
     0.12500000     0.98594880     0.20631752
     0.20833333     0.15261546     0.20631752
     0.20833333     0.31928213     0.20631752
     0.20833333     0.48594880     0.20631752
     0.20833333     0.65261546     0.20631752
     0.20833333     0.81928213     0.20631752
     0.20833333     0.98594880     0.20631752
     0.29166667     0.15261546     0.20631752
     0.29166667     0.31928213     0.20631752
     0.29166667     0.48594880     0.20631752
     0.29166667     0.65261546     0.20631752
     0.29166667     0.81928213     0.20631752
     0.29166667     0.98594880     0.20631752
     0.37500000     0.15261546     0.20631752
     0.37500000     0.31928213     0.20631752
     0.37500000     0.48594880     0.20631752
     0.37500000     0.65261546     0.20631752
     0.37500000     0.81928213     0.20631752
     0.37500000     0.98594880     0.20631752
     0.45833333     0.15261546     0.20631752
     0.45833333     0.31928213     0.20631752
     0.45833333     0.48594880     0.20631752
     0.45833333     0.65261546     0.20631752
     0.45833333     0.81928213     0.20631752
     0.45833333     0.98594880     0.20631752
     0.54166667     0.15261546     0.20631752
     0.54166667     0.31928213     0.20631752
     0.54166667     0.48594880     0.20631752
     0.54166667     0.65261546     0.20631752
     0.54166667     0.81928213     0.20631752
     0.54166667     0.98594880     0.20631752
     0.62500000     0.15261546     0.20631752
     0.62500000     0.31928213     0.20631752
     0.62500000     0.48594880     0.20631752
     0.62500000     0.65261546     0.20631752
     0.62500000     0.81928213     0.20631752
     0.62500000     0.98594880     0.20631752
     0.70833333     0.15261546     0.20631752
     0.70833333     0.31928213     0.20631752
     0.70833333     0.48594880     0.20631752
     0.70833333     0.65261546     0.20631752
     0.70833333     0.81928213     0.20631752
     0.70833333     0.98594880     0.20631752
     0.79166667     0.15261546     0.20631752
     0.79166667     0.31928213     0.20631752
     0.79166667     0.48594880     0.20631752
     0.79166667     0.65261546     0.20631752
     0.79166667     0.81928213     0.20631752
     0.79166667     0.98594880     0.20631752
     0.87500000     0.15261546     0.20631752
     0.87500000     0.31928213     0.20631752
     0.87500000     0.48594880     0.20631752
     0.87500000     0.65261546     0.20631752
     0.87500000     0.81928213     0.20631752
     0.87500000     0.98594880     0.20631752
     0.95833333     0.15261546     0.20631752
     0.95833333     0.31928213     0.20631752
     0.95833333     0.48594880     0.20631752
     0.95833333     0.65261546     0.20631752
     0.95833333     0.81928213     0.20631752
     0.95833333     0.98594880     0.20631752
     0.96942161     0.60248094     0.51263504
     0.98207984     0.76703790     0.51263504
     0.99473807     0.93159486     0.51263504
     0.00739629     0.09615182     0.51263504
     0.02005452     0.26070878     0.51263504
     0.03271275     0.42526575     0.51263504
     0.04537098     0.58982271     0.51263504
     0.05802921     0.75437967     0.51263504
     0.07068743     0.91893663     0.51263504
     0.08334566     0.08349359     0.51263504
     0.09600389     0.24805056     0.51263504
     0.10866212     0.41260752     0.51263504
     0.12132034     0.57716448     0.51263504
     0.13397857     0.74172144     0.51263504
     0.14663680     0.90627840     0.51263504
     0.15929503     0.07083537     0.51263504
     0.17195326     0.23539233     0.51263504
     0.18461148     0.39994929     0.51263504
     0.19726971     0.56450625     0.51263504
     0.20992794     0.72906321     0.51263504
     0.22258617     0.89362018     0.51263504
     0.23524440     0.05817714     0.51263504
     0.24790262     0.22273410     0.51263504
     0.26056085     0.38729106     0.51263504
     0.27321908     0.55184802     0.51263504
     0.28587731     0.71640499     0.51263504
     0.29853553     0.88096195     0.51263504
     0.31119376     0.04551891     0.51263504
     0.32385199     0.21007587     0.51263504
     0.33651022     0.37463283     0.51263504
     0.34916845     0.53918980     0.51263504
     0.36182667     0.70374676     0.51263504
     0.37448490     0.86830372     0.51263504
     0.38714313     0.03286068     0.51263504
     0.39980136     0.19741764     0.51263504
     0.41245959     0.36197461     0.51263504
     0.42511781     0.52653157     0.51263504
     0.43777604     0.69108853     0.51263504
     0.45043427     0.85564549     0.51263504
     0.46309250     0.02020245     0.51263504
     0.47575072     0.18475942     0.51263504
     0.48840895     0.34931638     0.51263504
     0.50106718     0.51387334     0.51263504
     0.51372541     0.67843030     0.51263504
     0.52638364     0.84298726     0.51263504
     0.53904186     0.00754423     0.51263504
     0.55170009     0.17210119     0.51263504
     0.56435832     0.33665815     0.51263504
     0.57701655     0.50121511     0.51263504
     0.58967478     0.66577208     0.51263504
     0.60233300     0.83032904     0.51263504
     0.61499123     0.99488600     0.51263504
     0.62764946     0.15944296     0.51263504
     0.64030769     0.32399992     0.51263504
     0.65296591     0.48855689     0.51263504
     0.66562414     0.65311385     0.51263504
     0.67828237     0.81767081     0.51263504
     0.69094060     0.98222777     0.51263504
     0.70359883     0.14678473     0.51263504
     0.71625705     0.31134170     0.51263504
     0.72891528     0.47589866     0.51263504
     0.74157351     0.64045562     0.51263504
     0.75423174     0.80501258     0.51263504
     0.76688996     0.96956954     0.51263504
     0.77954819     0.13412651     0.51263504
     0.79220642     0.29868347     0.51263504
     0.80486465     0.46324043     0.51263504
     0.81752288     0.62779739     0.51263504
     0.83018110     0.79235435     0.51263504
     0.84283933     0.95691132     0.51263504
     0.85549756     0.12146828     0.51263504
     0.86815579     0.28602524     0.51263504
     0.88081402     0.45058220     0.51263504
     0.89347224     0.61513916     0.51263504
     0.90613047     0.77969613     0.51263504
     0.91878870     0.94425309     0.51263504
     0.93144693     0.10881005     0.51263504
     0.94410515     0.27336701     0.51263504
     0.95676338     0.43792397     0.51263504
     0.96728725     0.57473425     0.40631752
     0.97994548     0.73929122     0.40631752
     0.99260371     0.90384818     0.40631752
     0.00526193     0.06840514     0.40631752
     0.01792016     0.23296210     0.40631752
     0.03057839     0.39751906     0.40631752
     0.04323662     0.56207603     0.40631752
     0.05589485     0.72663299     0.40631752
     0.06855307     0.89118995     0.40631752
     0.08121130     0.05574691     0.40631752
     0.09386953     0.22030387     0.40631752
     0.10652776     0.38486084     0.40631752
     0.11918598     0.54941780     0.40631752
     0.13184421     0.71397476     0.40631752
     0.14450244     0.87853172     0.40631752
     0.15716067     0.04308868     0.40631752
     0.16981890     0.20764565     0.40631752
     0.18247712     0.37220261     0.40631752
     0.19513535     0.53675957     0.40631752
     0.20779358     0.70131653     0.40631752
     0.22045181     0.86587349     0.40631752
     0.23311004     0.03043046     0.40631752
     0.24576826     0.19498742     0.40631752
     0.25842649     0.35954438     0.40631752
     0.27108472     0.52410134     0.40631752
     0.28374295     0.68865830     0.40631752
     0.29640117     0.85321527     0.40631752
     0.30905940     0.01777223     0.40631752
     0.32171763     0.18232919     0.40631752
     0.33437586     0.34688615     0.40631752
     0.34703409     0.51144311     0.40631752
     0.35969231     0.67600008     0.40631752
     0.37235054     0.84055704     0.40631752
     0.38500877     0.00511400     0.40631752
     0.39766700     0.16967096     0.40631752
     0.41032522     0.33422792     0.40631752
     0.42298345     0.49878489     0.40631752
     0.43564168     0.66334185     0.40631752
     0.44829991     0.82789881     0.40631752
     0.46095814     0.99245577     0.40631752
     0.47361636     0.15701274     0.40631752
     0.48627459     0.32156970     0.40631752
     0.49893282     0.48612666     0.40631752
     0.51159105     0.65068362     0.40631752
     0.52424928     0.81524058     0.40631752
     0.53690750     0.97979755     0.40631752
     0.54956573     0.14435451     0.40631752
     0.56222396     0.30891147     0.40631752
     0.57488219     0.47346843     0.40631752
     0.58754041     0.63802539     0.40631752
     0.60019864     0.80258236     0.40631752
     0.61285687     0.96713932     0.40631752
     0.62551510     0.13169628     0.40631752
     0.63817333     0.29625324     0.40631752
     0.65083155     0.46081020     0.40631752
     0.66348978     0.62536717     0.40631752
     0.67614801     0.78992413     0.40631752
     0.68880624     0.95448109     0.40631752
     0.70146447     0.11903805     0.40631752
     0.71412269     0.28359501     0.40631752
     0.72678092     0.44815198     0.40631752
     0.73943915     0.61270894     0.40631752
     0.75209738     0.77726590     0.40631752
     0.76475560     0.94182286     0.40631752
     0.77741383     0.10637982     0.40631752
     0.79007206     0.27093679     0.40631752
     0.80273029     0.43549375     0.40631752
     0.81538852     0.60005071     0.40631752
     0.82804674     0.76460767     0.40631752
     0.84070497     0.92916463     0.40631752
     0.85336320     0.09372160     0.40631752
     0.86602143     0.25827856     0.40631752
     0.87867966     0.42283552     0.40631752
     0.89133788     0.58739248     0.40631752
     0.90399611     0.75194944     0.40631752
     0.91665434     0.91650641     0.40631752
     0.92931257     0.08106337     0.40631752
     0.94197079     0.24562033     0.40631752
     0.95462902     0.41017729     0.40631752
     0.00106718     0.51387334     0.40631752
     0.01372541     0.67843030     0.40631752
     0.02638364     0.84298726     0.40631752
     0.03904186     0.00754423     0.40631752
     0.05170009     0.17210119     0.40631752
     0.06435832     0.33665815     0.40631752
     0.07701655     0.50121511     0.40631752
     0.08967477     0.66577207     0.40631752
     0.10233300     0.83032904     0.40631752
     0.11499123     0.99488600     0.40631752
     0.12764946     0.15944296     0.40631752
     0.14030769     0.32399992     0.40631752
     0.15296591     0.48855688     0.40631752
     0.16562414     0.65311385     0.40631752
     0.17828237     0.81767081     0.40631752
     0.19094060     0.98222777     0.40631752
     0.20359883     0.14678473     0.40631752
     0.21625705     0.31134169     0.40631752
     0.22891528     0.47589866     0.40631752
     0.24157351     0.64045562     0.40631752
     0.25423174     0.80501258     0.40631752
     0.26688996     0.96956954     0.40631752
     0.27954819     0.13412650     0.40631752
     0.29220642     0.29868347     0.40631752
     0.30486465     0.46324043     0.40631752
     0.31752288     0.62779739     0.40631752
     0.33018110     0.79235435     0.40631752
     0.34283933     0.95691131     0.40631752
     0.35549756     0.12146828     0.40631752
     0.36815579     0.28602524     0.40631752
     0.38081402     0.45058220     0.40631752
     0.39347224     0.61513916     0.40631752
     0.40613047     0.77969612     0.40631752
     0.41878870     0.94425309     0.40631752
     0.43144693     0.10881005     0.40631752
     0.44410515     0.27336701     0.40631752
     0.45676338     0.43792397     0.40631752
     0.46942161     0.60248093     0.40631752
     0.48207984     0.76703790     0.40631752
     0.49473807     0.93159486     0.40631752
     0.50739629     0.09615182     0.40631752
     0.52005452     0.26070878     0.40631752
     0.53271275     0.42526574     0.40631752
     0.54537098     0.58982271     0.40631752
     0.55802921     0.75437967     0.40631752
     0.57068743     0.91893663     0.40631752
     0.58334566     0.08349359     0.40631752
     0.59600389     0.24805055     0.40631752
     0.60866212     0.41260752     0.40631752
     0.62132034     0.57716448     0.40631752
     0.63397857     0.74172144     0.40631752
     0.64663680     0.90627840     0.40631752
     0.65929503     0.07083536     0.40631752
     0.67195326     0.23539233     0.40631752
     0.68461148     0.39994929     0.40631752
     0.69726971     0.56450625     0.40631752
     0.70992794     0.72906321     0.40631752
     0.72258617     0.89362017     0.40631752
     0.73524440     0.05817714     0.40631752
     0.74790262     0.22273410     0.40631752
     0.76056085     0.38729106     0.40631752
     0.77321908     0.55184802     0.40631752
     0.78587731     0.71640499     0.40631752
     0.79853553     0.88096195     0.40631752
     0.81119376     0.04551891     0.40631752
     0.82385199     0.21007587     0.40631752
     0.83651022     0.37463283     0.40631752
     0.84916845     0.53918980     0.40631752
     0.86182667     0.70374676     0.40631752
     0.87448490     0.86830372     0.40631752
     0.88714313     0.03286068     0.40631752
     0.89980136     0.19741764     0.40631752
     0.91245959     0.36197461     0.40631752
     0.92511781     0.52653157     0.40631752
     0.93777604     0.69108853     0.40631752
     0.95043427     0.85564549     0.40631752
     0.96309250     0.02020245     0.40631752
     0.97575072     0.18475942     0.40631752
     0.98840895     0.34931638     0.40631752
     0.01159105     0.65068362     0.51263504
     0.02424928     0.81524058     0.51263504
     0.03690750     0.97979755     0.51263504
     0.04956573     0.14435451     0.51263504
     0.06222396     0.30891147     0.51263504
     0.07488219     0.47346843     0.51263504
     0.08754041     0.63802539     0.51263504
     0.10019864     0.80258236     0.51263504
     0.11285687     0.96713932     0.51263504
     0.12551510     0.13169628     0.51263504
     0.13817333     0.29625324     0.51263504
     0.15083155     0.46081020     0.51263504
     0.16348978     0.62536717     0.51263504
     0.17614801     0.78992413     0.51263504
     0.18880624     0.95448109     0.51263504
     0.20146447     0.11903805     0.51263504
     0.21412269     0.28359501     0.51263504
     0.22678092     0.44815198     0.51263504
     0.23943915     0.61270894     0.51263504
     0.25209738     0.77726590     0.51263504
     0.26475560     0.94182286     0.51263504
     0.27741383     0.10637982     0.51263504
     0.29007206     0.27093679     0.51263504
     0.30273029     0.43549375     0.51263504
     0.31538852     0.60005071     0.51263504
     0.32804674     0.76460767     0.51263504
     0.34070497     0.92916463     0.51263504
     0.35336320     0.09372160     0.51263504
     0.36602143     0.25827856     0.51263504
     0.37867966     0.42283552     0.51263504
     0.39133788     0.58739248     0.51263504
     0.40399611     0.75194944     0.51263504
     0.41665434     0.91650641     0.51263504
     0.42931257     0.08106337     0.51263504
     0.44197079     0.24562033     0.51263504
     0.45462902     0.41017729     0.51263504
     0.46728725     0.57473425     0.51263504
     0.47994548     0.73929122     0.51263504
     0.49260371     0.90384818     0.51263504
     0.50526193     0.06840514     0.51263504
     0.51792016     0.23296210     0.51263504
     0.53057839     0.39751906     0.51263504
     0.54323662     0.56207603     0.51263504
     0.55589485     0.72663299     0.51263504
     0.56855307     0.89118995     0.51263504
     0.58121130     0.05574691     0.51263504
     0.59386953     0.22030387     0.51263504
     0.60652776     0.38486084     0.51263504
     0.61918598     0.54941780     0.51263504
     0.63184421     0.71397476     0.51263504
     0.64450244     0.87853172     0.51263504
     0.65716067     0.04308868     0.51263504
     0.66981890     0.20764565     0.51263504
     0.68247712     0.37220261     0.51263504
     0.69513535     0.53675957     0.51263504
     0.70779358     0.70131653     0.51263504
     0.72045181     0.86587349     0.51263504
     0.73311004     0.03043046     0.51263504
     0.74576826     0.19498742     0.51263504
     0.75842649     0.35954438     0.51263504
     0.77108472     0.52410134     0.51263504
     0.78374295     0.68865830     0.51263504
     0.79640117     0.85321527     0.51263504
     0.80905940     0.01777223     0.51263504
     0.82171763     0.18232919     0.51263504
     0.83437586     0.34688615     0.51263504
     0.84703409     0.51144311     0.51263504
     0.85969231     0.67600008     0.51263504
     0.87235054     0.84055704     0.51263504
     0.88500877     0.00511400     0.51263504
     0.89766700     0.16967096     0.51263504
     0.91032522     0.33422792     0.51263504
     0.92298345     0.49878489     0.51263504
     0.93564168     0.66334185     0.51263504
     0.94829991     0.82789881     0.51263504
     0.96095814     0.99245577     0.51263504
     0.97361636     0.15701274     0.51263504
     0.98627459     0.32156970     0.51263504
     0.99893282     0.48612666     0.51263504
