 V1 Se2                                 
   1.00000000000000     
     3.3162880375378201    0.0000000000000000    0.0000000000000000
    -1.6581440187689100    2.8719896867741901    0.0000000000000000
     0.0000000000000000    0.0000000000000000   15.1511016299999994
   V    Se
     1     2
Direct
 -0.0000000000000000  0.0000000000000000  0.5000000148504071
  0.6666666870000029  0.3333333429999996  0.3956980360111567
  0.3333333429999996  0.6666666870000029  0.6043019639888432
 
  0.00000000E+00  0.00000000E+00  0.00000000E+00
  0.00000000E+00  0.00000000E+00  0.00000000E+00
  0.00000000E+00  0.00000000E+00  0.00000000E+00
