Generated by Twist2D
    1.0
      36.47916841      22.97591749       0.00000000
     -38.13731243      20.10392781       0.00000000
       0.00000000       0.00000000      20.00000000
    V  Se
    338  676
Direct
     0.04142012     0.95266272     0.17901449
     0.03550296     0.81656805     0.17901449
     0.08284024     0.90532544     0.17901449
     0.13017751     0.99408284     0.17901449
     0.02958580     0.68047337     0.17901449
     0.07692308     0.76923077     0.17901449
     0.12426036     0.85798817     0.17901449
     0.17159763     0.94674556     0.17901449
     0.02366864     0.54437870     0.17901449
     0.07100592     0.63313609     0.17901449
     0.11834320     0.72189349     0.17901449
     0.16568047     0.81065089     0.17901449
     0.21301775     0.89940828     0.17901449
     0.26035503     0.98816568     0.17901449
     0.01775148     0.40828402     0.17901449
     0.06508876     0.49704142     0.17901449
     0.11242604     0.58579882     0.17901449
     0.15976331     0.67455621     0.17901449
     0.20710059     0.76331361     0.17901449
     0.25443787     0.85207101     0.17901449
     0.30177515     0.94082840     0.17901449
     0.01183432     0.27218935     0.17901449
     0.05917160     0.36094675     0.17901449
     0.10650888     0.44970414     0.17901449
     0.15384615     0.53846154     0.17901449
     0.20118343     0.62721893     0.17901449
     0.24852071     0.71597633     0.17901449
     0.29585799     0.80473373     0.17901449
     0.34319527     0.89349112     0.17901449
     0.39053254     0.98224852     0.17901449
     0.00591716     0.13609467     0.17901449
     0.05325444     0.22485207     0.17901449
     0.10059172     0.31360947     0.17901449
     0.14792899     0.40236686     0.17901449
     0.19526627     0.49112426     0.17901449
     0.24260355     0.57988166     0.17901449
     0.28994083     0.66863905     0.17901449
     0.33727811     0.75739645     0.17901449
     0.38461538     0.84615385     0.17901449
     0.43195266     0.93491124     0.17901449
     0.00000000     0.00000000     0.17901449
     0.04733728     0.08875740     0.17901449
     0.09467456     0.17751479     0.17901449
     0.14201183     0.26627219     0.17901449
     0.18934911     0.35502959     0.17901449
     0.23668639     0.44378698     0.17901449
     0.28402367     0.53254438     0.17901449
     0.33136095     0.62130178     0.17901449
     0.37869822     0.71005917     0.17901449
     0.42603550     0.79881657     0.17901449
     0.47337278     0.88757396     0.17901449
     0.52071006     0.97633136     0.17901449
     0.08875740     0.04142012     0.17901449
     0.13609467     0.13017751     0.17901449
     0.18343195     0.21893491     0.17901449
     0.23076923     0.30769231     0.17901449
     0.27810651     0.39644970     0.17901449
     0.32544379     0.48520710     0.17901449
     0.37278107     0.57396450     0.17901449
     0.42011834     0.66272189     0.17901449
     0.46745562     0.75147929     0.17901449
     0.51479290     0.84023669     0.17901449
     0.56213018     0.92899408     0.17901449
     0.17751479     0.08284024     0.17901449
     0.22485207     0.17159763     0.17901449
     0.27218935     0.26035503     0.17901449
     0.31952663     0.34911243     0.17901449
     0.36686391     0.43786982     0.17901449
     0.41420118     0.52662722     0.17901449
     0.46153846     0.61538462     0.17901449
     0.50887574     0.70414201     0.17901449
     0.55621302     0.79289941     0.17901449
     0.60355030     0.88165680     0.17901449
     0.65088757     0.97041420     0.17901449
     0.21893491     0.03550296     0.17901449
     0.26627219     0.12426036     0.17901449
     0.31360947     0.21301775     0.17901449
     0.36094675     0.30177515     0.17901449
     0.40828402     0.39053254     0.17901449
     0.45562130     0.47928994     0.17901449
     0.50295858     0.56804734     0.17901449
     0.55029586     0.65680473     0.17901449
     0.59763314     0.74556213     0.17901449
     0.64497041     0.83431953     0.17901449
     0.69230769     0.92307692     0.17901449
     0.30769231     0.07692308     0.17901449
     0.35502959     0.16568047     0.17901449
     0.40236686     0.25443787     0.17901449
     0.44970414     0.34319527     0.17901449
     0.49704142     0.43195266     0.17901449
     0.54437870     0.52071006     0.17901449
     0.59171598     0.60946746     0.17901449
     0.63905325     0.69822485     0.17901449
     0.68639053     0.78698225     0.17901449
     0.73372781     0.87573964     0.17901449
     0.78106509     0.96449704     0.17901449
     0.34911243     0.02958580     0.17901449
     0.39644970     0.11834320     0.17901449
     0.44378698     0.20710059     0.17901449
     0.49112426     0.29585799     0.17901449
     0.53846154     0.38461538     0.17901449
     0.58579882     0.47337278     0.17901449
     0.63313609     0.56213018     0.17901449
     0.68047337     0.65088757     0.17901449
     0.72781065     0.73964497     0.17901449
     0.77514793     0.82840237     0.17901449
     0.82248521     0.91715976     0.17901449
     0.43786982     0.07100592     0.17901449
     0.48520710     0.15976331     0.17901449
     0.53254438     0.24852071     0.17901449
     0.57988166     0.33727811     0.17901449
     0.62721893     0.42603550     0.17901449
     0.67455621     0.51479290     0.17901449
     0.72189349     0.60355030     0.17901449
     0.76923077     0.69230769     0.17901449
     0.81656805     0.78106509     0.17901449
     0.86390533     0.86982249     0.17901449
     0.91124260     0.95857988     0.17901449
     0.47928994     0.02366864     0.17901449
     0.52662722     0.11242604     0.17901449
     0.57396450     0.20118343     0.17901449
     0.62130178     0.28994083     0.17901449
     0.66863905     0.37869822     0.17901449
     0.71597633     0.46745562     0.17901449
     0.76331361     0.55621302     0.17901449
     0.81065089     0.64497041     0.17901449
     0.85798817     0.73372781     0.17901449
     0.90532544     0.82248521     0.17901449
     0.95266272     0.91124260     0.17901449
     0.56804734     0.06508876     0.17901449
     0.61538462     0.15384615     0.17901449
     0.66272189     0.24260355     0.17901449
     0.71005917     0.33136095     0.17901449
     0.75739645     0.42011834     0.17901449
     0.80473373     0.50887574     0.17901449
     0.85207101     0.59763314     0.17901449
     0.89940828     0.68639053     0.17901449
     0.94674556     0.77514793     0.17901449
     0.99408284     0.86390533     0.17901449
     0.60946746     0.01775148     0.17901449
     0.65680473     0.10650888     0.17901449
     0.70414201     0.19526627     0.17901449
     0.75147929     0.28402367     0.17901449
     0.79881657     0.37278107     0.17901449
     0.84615385     0.46153846     0.17901449
     0.89349112     0.55029586     0.17901449
     0.94082840     0.63905325     0.17901449
     0.98816568     0.72781065     0.17901449
     0.69822485     0.05917160     0.17901449
     0.74556213     0.14792899     0.17901449
     0.79289941     0.23668639     0.17901449
     0.84023669     0.32544379     0.17901449
     0.88757396     0.41420118     0.17901449
     0.93491124     0.50295858     0.17901449
     0.98224852     0.59171598     0.17901449
     0.73964497     0.01183432     0.17901449
     0.78698225     0.10059172     0.17901449
     0.83431953     0.18934911     0.17901449
     0.88165680     0.27810651     0.17901449
     0.92899408     0.36686391     0.17901449
     0.97633136     0.45562130     0.17901449
     0.82840237     0.05325444     0.17901449
     0.87573964     0.14201183     0.17901449
     0.92307692     0.23076923     0.17901449
     0.97041420     0.31952663     0.17901449
     0.86982249     0.00591716     0.17901449
     0.91715976     0.09467456     0.17901449
     0.96449704     0.18343195     0.17901449
     0.95857988     0.04733728     0.17901449
     0.04733728     0.95857988     0.48704346
     0.00591716     0.86982249     0.48704346
     0.09467456     0.91715976     0.48704346
     0.18343195     0.96449704     0.48704346
     0.05325444     0.82840237     0.48704346
     0.14201183     0.87573964     0.48704346
     0.23076923     0.92307692     0.48704346
     0.31952663     0.97041420     0.48704346
     0.01183432     0.73964497     0.48704346
     0.10059172     0.78698225     0.48704346
     0.18934911     0.83431953     0.48704346
     0.27810651     0.88165680     0.48704346
     0.36686391     0.92899408     0.48704346
     0.45562130     0.97633136     0.48704346
     0.05917160     0.69822485     0.48704346
     0.14792899     0.74556213     0.48704346
     0.23668639     0.79289941     0.48704346
     0.32544379     0.84023669     0.48704346
     0.41420118     0.88757396     0.48704346
     0.50295858     0.93491124     0.48704346
     0.59171598     0.98224852     0.48704346
     0.01775148     0.60946746     0.48704346
     0.10650888     0.65680473     0.48704346
     0.19526627     0.70414201     0.48704346
     0.28402367     0.75147929     0.48704346
     0.37278107     0.79881657     0.48704346
     0.46153846     0.84615385     0.48704346
     0.55029586     0.89349112     0.48704346
     0.63905325     0.94082840     0.48704346
     0.72781065     0.98816568     0.48704346
     0.06508876     0.56804734     0.48704346
     0.15384615     0.61538462     0.48704346
     0.24260355     0.66272189     0.48704346
     0.33136095     0.71005917     0.48704346
     0.42011834     0.75739645     0.48704346
     0.50887574     0.80473373     0.48704346
     0.59763314     0.85207101     0.48704346
     0.68639053     0.89940828     0.48704346
     0.77514793     0.94674556     0.48704346
     0.86390533     0.99408284     0.48704346
     0.02366864     0.47928994     0.48704346
     0.11242604     0.52662722     0.48704346
     0.20118343     0.57396450     0.48704346
     0.28994083     0.62130178     0.48704346
     0.37869822     0.66863905     0.48704346
     0.46745562     0.71597633     0.48704346
     0.55621302     0.76331361     0.48704346
     0.64497041     0.81065089     0.48704346
     0.73372781     0.85798817     0.48704346
     0.82248521     0.90532544     0.48704346
     0.91124260     0.95266272     0.48704346
     0.07100592     0.43786982     0.48704346
     0.15976331     0.48520710     0.48704346
     0.24852071     0.53254438     0.48704346
     0.33727811     0.57988166     0.48704346
     0.42603550     0.62721893     0.48704346
     0.51479290     0.67455621     0.48704346
     0.60355030     0.72189349     0.48704346
     0.69230769     0.76923077     0.48704346
     0.78106509     0.81656805     0.48704346
     0.86982249     0.86390533     0.48704346
     0.95857988     0.91124260     0.48704346
     0.02958580     0.34911243     0.48704346
     0.11834320     0.39644970     0.48704346
     0.20710059     0.44378698     0.48704346
     0.29585799     0.49112426     0.48704346
     0.38461538     0.53846154     0.48704346
     0.47337278     0.58579882     0.48704346
     0.56213018     0.63313609     0.48704346
     0.65088757     0.68047337     0.48704346
     0.73964497     0.72781065     0.48704346
     0.82840237     0.77514793     0.48704346
     0.91715976     0.82248521     0.48704346
     0.07692308     0.30769231     0.48704346
     0.16568047     0.35502959     0.48704346
     0.25443787     0.40236686     0.48704346
     0.34319527     0.44970414     0.48704346
     0.43195266     0.49704142     0.48704346
     0.52071006     0.54437870     0.48704346
     0.60946746     0.59171598     0.48704346
     0.69822485     0.63905325     0.48704346
     0.78698225     0.68639053     0.48704346
     0.87573964     0.73372781     0.48704346
     0.96449704     0.78106509     0.48704346
     0.03550296     0.21893491     0.48704346
     0.12426036     0.26627219     0.48704346
     0.21301775     0.31360947     0.48704346
     0.30177515     0.36094675     0.48704346
     0.39053254     0.40828402     0.48704346
     0.47928994     0.45562130     0.48704346
     0.56804734     0.50295858     0.48704346
     0.65680473     0.55029586     0.48704346
     0.74556213     0.59763314     0.48704346
     0.83431953     0.64497041     0.48704346
     0.92307692     0.69230769     0.48704346
     0.08284024     0.17751479     0.48704346
     0.17159763     0.22485207     0.48704346
     0.26035503     0.27218935     0.48704346
     0.34911243     0.31952663     0.48704346
     0.43786982     0.36686391     0.48704346
     0.52662722     0.41420118     0.48704346
     0.61538462     0.46153846     0.48704346
     0.70414201     0.50887574     0.48704346
     0.79289941     0.55621302     0.48704346
     0.88165680     0.60355030     0.48704346
     0.97041420     0.65088757     0.48704346
     0.04142012     0.08875740     0.48704346
     0.13017751     0.13609467     0.48704346
     0.21893491     0.18343195     0.48704346
     0.30769231     0.23076923     0.48704346
     0.39644970     0.27810651     0.48704346
     0.48520710     0.32544379     0.48704346
     0.57396450     0.37278107     0.48704346
     0.66272189     0.42011834     0.48704346
     0.75147929     0.46745562     0.48704346
     0.84023669     0.51479290     0.48704346
     0.92899408     0.56213018     0.48704346
     0.00000000     0.00000000     0.48704346
     0.08875740     0.04733728     0.48704346
     0.17751479     0.09467456     0.48704346
     0.26627219     0.14201183     0.48704346
     0.35502959     0.18934911     0.48704346
     0.44378698     0.23668639     0.48704346
     0.53254438     0.28402367     0.48704346
     0.62130178     0.33136095     0.48704346
     0.71005917     0.37869822     0.48704346
     0.79881657     0.42603550     0.48704346
     0.88757396     0.47337278     0.48704346
     0.97633136     0.52071006     0.48704346
     0.13609467     0.00591716     0.48704346
     0.22485207     0.05325444     0.48704346
     0.31360947     0.10059172     0.48704346
     0.40236686     0.14792899     0.48704346
     0.49112426     0.19526627     0.48704346
     0.57988166     0.24260355     0.48704346
     0.66863905     0.28994083     0.48704346
     0.75739645     0.33727811     0.48704346
     0.84615385     0.38461538     0.48704346
     0.93491124     0.43195266     0.48704346
     0.27218935     0.01183432     0.48704346
     0.36094675     0.05917160     0.48704346
     0.44970414     0.10650888     0.48704346
     0.53846154     0.15384615     0.48704346
     0.62721893     0.20118343     0.48704346
     0.71597633     0.24852071     0.48704346
     0.80473373     0.29585799     0.48704346
     0.89349112     0.34319527     0.48704346
     0.98224852     0.39053254     0.48704346
     0.40828402     0.01775148     0.48704346
     0.49704142     0.06508876     0.48704346
     0.58579882     0.11242604     0.48704346
     0.67455621     0.15976331     0.48704346
     0.76331361     0.20710059     0.48704346
     0.85207101     0.25443787     0.48704346
     0.94082840     0.30177515     0.48704346
     0.54437870     0.02366864     0.48704346
     0.63313609     0.07100592     0.48704346
     0.72189349     0.11834320     0.48704346
     0.81065089     0.16568047     0.48704346
     0.89940828     0.21301775     0.48704346
     0.98816568     0.26035503     0.48704346
     0.68047337     0.02958580     0.48704346
     0.76923077     0.07692308     0.48704346
     0.85798817     0.12426036     0.48704346
     0.94674556     0.17159763     0.48704346
     0.81656805     0.03550296     0.48704346
     0.90532544     0.08284024     0.48704346
     0.99408284     0.13017751     0.48704346
     0.95266272     0.04142012     0.48704346
     0.08481262     0.95069034     0.10000000
     0.07889546     0.81459566     0.10000000
     0.12623274     0.90335306     0.10000000
     0.17357002     0.99211045     0.10000000
     0.07297831     0.67850099     0.10000000
     0.12031558     0.76725838     0.10000000
     0.16765286     0.85601578     0.10000000
     0.21499014     0.94477318     0.10000000
     0.06706115     0.54240631     0.10000000
     0.11439842     0.63116371     0.10000000
     0.16173570     0.71992110     0.10000000
     0.20907298     0.80867850     0.10000000
     0.25641026     0.89743590     0.10000000
     0.30374754     0.98619329     0.10000000
     0.06114399     0.40631164     0.10000000
     0.10848126     0.49506903     0.10000000
     0.15581854     0.58382643     0.10000000
     0.20315582     0.67258383     0.10000000
     0.25049310     0.76134122     0.10000000
     0.29783038     0.85009862     0.10000000
     0.34516765     0.93885602     0.10000000
     0.05522683     0.27021696     0.10000000
     0.10256410     0.35897436     0.10000000
     0.14990138     0.44773176     0.10000000
     0.19723866     0.53648915     0.10000000
     0.24457594     0.62524655     0.10000000
     0.29191322     0.71400394     0.10000000
     0.33925049     0.80276134     0.10000000
     0.38658777     0.89151874     0.10000000
     0.43392505     0.98027613     0.10000000
     0.04930967     0.13412229     0.10000000
     0.09664694     0.22287968     0.10000000
     0.14398422     0.31163708     0.10000000
     0.19132150     0.40039448     0.10000000
     0.23865878     0.48915187     0.10000000
     0.28599606     0.57790927     0.10000000
     0.33333333     0.66666667     0.10000000
     0.38067061     0.75542406     0.10000000
     0.42800789     0.84418146     0.10000000
     0.47534517     0.93293886     0.10000000
     0.04339251    -0.00197239     0.10000000
     0.09072978     0.08678501     0.10000000
     0.13806706     0.17554241     0.10000000
     0.18540434     0.26429980     0.10000000
     0.23274162     0.35305720     0.10000000
     0.28007890     0.44181460     0.10000000
     0.32741617     0.53057199     0.10000000
     0.37475345     0.61932939     0.10000000
     0.42209073     0.70808678     0.10000000
     0.46942801     0.79684418     0.10000000
     0.51676529     0.88560158     0.10000000
     0.56410257     0.97435897     0.10000000
     0.13214990     0.03944773     0.10000000
     0.17948718     0.12820513     0.10000000
     0.22682446     0.21696252     0.10000000
     0.27416174     0.30571992     0.10000000
     0.32149902     0.39447732     0.10000000
     0.36883629     0.48323471     0.10000000
     0.41617357     0.57199211     0.10000000
     0.46351085     0.66074951     0.10000000
     0.51084813     0.74950690     0.10000000
     0.55818541     0.83826430     0.10000000
     0.60552268     0.92702170     0.10000000
     0.22090730     0.08086785     0.10000000
     0.26824458     0.16962525     0.10000000
     0.31558186     0.25838264     0.10000000
     0.36291913     0.34714004     0.10000000
     0.41025641     0.43589744     0.10000000
     0.45759369     0.52465483     0.10000000
     0.50493097     0.61341223     0.10000000
     0.55226825     0.70216963     0.10000000
     0.59960552     0.79092702     0.10000000
     0.64694280     0.87968442     0.10000000
     0.69428008     0.96844181     0.10000000
     0.26232742     0.03353057     0.10000000
     0.30966470     0.12228797     0.10000000
     0.35700197     0.21104536     0.10000000
     0.40433925     0.29980276     0.10000000
     0.45167653     0.38856016     0.10000000
     0.49901381     0.47731755     0.10000000
     0.54635109     0.56607495     0.10000000
     0.59368836     0.65483235     0.10000000
     0.64102564     0.74358974     0.10000000
     0.68836292     0.83234714     0.10000000
     0.73570020     0.92110454     0.10000000
     0.35108481     0.07495069     0.10000000
     0.39842209     0.16370809     0.10000000
     0.44575937     0.25246548     0.10000000
     0.49309665     0.34122288     0.10000000
     0.54043393     0.42998028     0.10000000
     0.58777120     0.51873767     0.10000000
     0.63510848     0.60749507     0.10000000
     0.68244576     0.69625247     0.10000000
     0.72978304     0.78500986     0.10000000
     0.77712032     0.87376726     0.10000000
     0.82445759     0.96252465     0.10000000
     0.39250493     0.02761341     0.10000000
     0.43984221     0.11637081     0.10000000
     0.48717949     0.20512821     0.10000000
     0.53451677     0.29388560     0.10000000
     0.58185404     0.38264300     0.10000000
     0.62919132     0.47140039     0.10000000
     0.67652860     0.56015779     0.10000000
     0.72386588     0.64891519     0.10000000
     0.77120316     0.73767258     0.10000000
     0.81854044     0.82642998     0.10000000
     0.86587771     0.91518738     0.10000000
     0.48126233     0.06903353     0.10000000
     0.52859961     0.15779093     0.10000000
     0.57593688     0.24654832     0.10000000
     0.62327416     0.33530572     0.10000000
     0.67061144     0.42406312     0.10000000
     0.71794872     0.51282051     0.10000000
     0.76528600     0.60157791     0.10000000
     0.81262328     0.69033531     0.10000000
     0.85996055     0.77909270     0.10000000
     0.90729783     0.86785010     0.10000000
     0.95463511     0.95660749     0.10000000
     0.52268245     0.02169625     0.10000000
     0.57001973     0.11045365     0.10000000
     0.61735700     0.19921105     0.10000000
     0.66469428     0.28796844     0.10000000
     0.71203156     0.37672584     0.10000000
     0.75936884     0.46548323     0.10000000
     0.80670612     0.55424063     0.10000000
     0.85404339     0.64299803     0.10000000
     0.90138067     0.73175542     0.10000000
     0.94871795     0.82051282     0.10000000
     0.99605523     0.90927022     0.10000000
     0.61143984     0.06311637     0.10000000
     0.65877712     0.15187377     0.10000000
     0.70611440     0.24063116     0.10000000
     0.75345168     0.32938856     0.10000000
     0.80078896     0.41814596     0.10000000
     0.84812623     0.50690335     0.10000000
     0.89546351     0.59566075     0.10000000
     0.94280079     0.68441815     0.10000000
     0.99013807     0.77317554     0.10000000
     1.03747535     0.86193294     0.10000000
     0.65285996     0.01577909     0.10000000
     0.70019724     0.10453649     0.10000000
     0.74753452     0.19329389     0.10000000
     0.79487180     0.28205128     0.10000000
     0.84220907     0.37080868     0.10000000
     0.88954635     0.45956607     0.10000000
     0.93688363     0.54832347     0.10000000
     0.98422091     0.63708087     0.10000000
     1.03155819     0.72583826     0.10000000
     0.74161736     0.05719921     0.10000000
     0.78895464     0.14595661     0.10000000
     0.83629191     0.23471400     0.10000000
     0.88362919     0.32347140     0.10000000
     0.93096647     0.41222880     0.10000000
     0.97830375     0.50098619     0.10000000
     1.02564103     0.58974359     0.10000000
     0.78303748     0.00986193     0.10000000
     0.83037475     0.09861933     0.10000000
     0.87771203     0.18737673     0.10000000
     0.92504931     0.27613412     0.10000000
     0.97238659     0.36489152     0.10000000
     1.01972387     0.45364892     0.10000000
     0.87179487     0.05128205     0.10000000
     0.91913215     0.14003945     0.10000000
     0.96646943     0.22879684     0.10000000
     1.01380671     0.31755424     0.10000000
     0.91321499     0.00394477     0.10000000
     0.96055227     0.09270217     0.10000000
     1.00788955     0.18145957     0.10000000
     1.00197239     0.04536489     0.10000000
     0.08678501     0.99605523     0.25802897
     0.08086785     0.85996055     0.25802897
     0.12820513     0.94871795     0.25802897
     0.17554241     1.03747535     0.25802897
     0.07495069     0.72386588     0.25802897
     0.12228797     0.81262328     0.25802897
     0.16962525     0.90138067     0.25802897
     0.21696253     0.99013807     0.25802897
     0.06903353     0.58777120     0.25802897
     0.11637081     0.67652860     0.25802897
     0.16370809     0.76528600     0.25802897
     0.21104537     0.85404339     0.25802897
     0.25838264     0.94280079     0.25802897
     0.30571992     1.03155819     0.25802897
     0.06311637     0.45167653     0.25802897
     0.11045365     0.54043393     0.25802897
     0.15779093     0.62919132     0.25802897
     0.20512821     0.71794872     0.25802897
     0.25246548     0.80670612     0.25802897
     0.29980276     0.89546351     0.25802897
     0.34714004     0.98422091     0.25802897
     0.05719921     0.31558186     0.25802897
     0.10453649     0.40433925     0.25802897
     0.15187377     0.49309665     0.25802897
     0.19921105     0.58185404     0.25802897
     0.24654832     0.67061144     0.25802897
     0.29388560     0.75936884     0.25802897
     0.34122288     0.84812623     0.25802897
     0.38856016     0.93688363     0.25802897
     0.43589744     1.02564103     0.25802897
     0.05128205     0.17948718     0.25802897
     0.09861933     0.26824458     0.25802897
     0.14595661     0.35700197     0.25802897
     0.19329389     0.44575937     0.25802897
     0.24063117     0.53451677     0.25802897
     0.28796844     0.62327416     0.25802897
     0.33530572     0.71203156     0.25802897
     0.38264300     0.80078896     0.25802897
     0.42998028     0.88954635     0.25802897
     0.47731756     0.97830375     0.25802897
     0.04536489     0.04339251     0.25802897
     0.09270217     0.13214990     0.25802897
     0.14003945     0.22090730     0.25802897
     0.18737673     0.30966470     0.25802897
     0.23471401     0.39842209     0.25802897
     0.28205128     0.48717949     0.25802897
     0.32938856     0.57593688     0.25802897
     0.37672584     0.66469428     0.25802897
     0.42406312     0.75345168     0.25802897
     0.47140040     0.84220907     0.25802897
     0.51873767     0.93096647     0.25802897
     0.56607495     1.01972387     0.25802897
     0.13412229     0.08481262     0.25802897
     0.18145957     0.17357002     0.25802897
     0.22879685     0.26232742     0.25802897
     0.27613412     0.35108481     0.25802897
     0.32347140     0.43984221     0.25802897
     0.37080868     0.52859961     0.25802897
     0.41814596     0.61735700     0.25802897
     0.46548324     0.70611440     0.25802897
     0.51282051     0.79487180     0.25802897
     0.56015779     0.88362919     0.25802897
     0.60749507     0.97238659     0.25802897
     0.22287969     0.12623274     0.25802897
     0.27021696     0.21499014     0.25802897
     0.31755424     0.30374754     0.25802897
     0.36489152     0.39250493     0.25802897
     0.41222880     0.48126233     0.25802897
     0.45956608     0.57001973     0.25802897
     0.50690335     0.65877712     0.25802897
     0.55424063     0.74753452     0.25802897
     0.60157791     0.83629191     0.25802897
     0.64891519     0.92504931     0.25802897
     0.69625247     1.01380671     0.25802897
     0.26429980     0.07889546     0.25802897
     0.31163708     0.16765286     0.25802897
     0.35897436     0.25641026     0.25802897
     0.40631164     0.34516765     0.25802897
     0.45364892     0.43392505     0.25802897
     0.50098619     0.52268245     0.25802897
     0.54832347     0.61143984     0.25802897
     0.59566075     0.70019724     0.25802897
     0.64299803     0.78895464     0.25802897
     0.69033531     0.87771203     0.25802897
     0.73767259     0.96646943     0.25802897
     0.35305720     0.12031558     0.25802897
     0.40039448     0.20907298     0.25802897
     0.44773176     0.29783038     0.25802897
     0.49506903     0.38658777     0.25802897
     0.54240631     0.47534517     0.25802897
     0.58974359     0.56410257     0.25802897
     0.63708087     0.65285996     0.25802897
     0.68441815     0.74161736     0.25802897
     0.73175543     0.83037475     0.25802897
     0.77909270     0.91913215     0.25802897
     0.82642998     1.00788955     0.25802897
     0.39447732     0.07297831     0.25802897
     0.44181460     0.16173570     0.25802897
     0.48915188     0.25049310     0.25802897
     0.53648915     0.33925049     0.25802897
     0.58382643     0.42800789     0.25802897
     0.63116371     0.51676529     0.25802897
     0.67850099     0.60552268     0.25802897
     0.72583827     0.69428008     0.25802897
     0.77317554     0.78303748     0.25802897
     0.82051282     0.87179487     0.25802897
     0.86785010     0.96055227     0.25802897
     0.48323472     0.11439842     0.25802897
     0.53057199     0.20315582     0.25802897
     0.57790927     0.29191322     0.25802897
     0.62524655     0.38067061     0.25802897
     0.67258383     0.46942801     0.25802897
     0.71992111     0.55818541     0.25802897
     0.76725838     0.64694280     0.25802897
     0.81459566     0.73570020     0.25802897
     0.86193294     0.82445760     0.25802897
     0.90927022     0.91321499     0.25802897
     0.95660750     1.00197239     0.25802897
     0.52465483     0.06706115     0.25802897
     0.57199211     0.15581854     0.25802897
     0.61932939     0.24457594     0.25802897
     0.66666667     0.33333333     0.25802897
     0.71400395     0.42209073     0.25802897
     0.76134122     0.51084813     0.25802897
     0.80867850     0.59960552     0.25802897
     0.85601578     0.68836292     0.25802897
     0.90335306     0.77712032     0.25802897
     0.95069034     0.86587771     0.25802897
     0.99802761     0.95463511     0.25802897
     0.61341223     0.10848126     0.25802897
     0.66074951     0.19723866     0.25802897
     0.70808679     0.28599606     0.25802897
     0.75542406     0.37475345     0.25802897
     0.80276134     0.46351085     0.25802897
     0.85009862     0.55226825     0.25802897
     0.89743590     0.64102564     0.25802897
     0.94477318     0.72978304     0.25802897
     0.99211046     0.81854044     0.25802897
     1.03944773     0.90729783     0.25802897
     0.65483235     0.06114399     0.25802897