Sn2 O2
1.0
        3.8705949783         0.0000000000         0.0000000000
        0.0000000000         3.8705949783         0.0000000000
        0.0000000000         0.0000000000         5.0252261162
   Sn    O
    2    2
Direct
    -0.000000000         0.500000000         0.231254999
     0.500000000        -0.000000000         0.768745001
     0.500000000         0.500000000         0.000000000
     0.000000000         0.000000000         0.000000000
