Generated by Twist2D
    1.0
      15.48237991      19.35297489       0.00000000
     -19.35297489      15.48237991       0.00000000
       0.00000000       0.00000000      20.00000000
    Sn  O
    164  164
Direct
     0.15853659     0.92682927     0.15810543
     0.28048780     1.02439024     0.15810543
     0.13414634     0.70731707     0.15810543
     0.25609756     0.80487805     0.15810543
     0.37804878     0.90243902     0.15810543
     0.50000000     1.00000000     0.15810543
     0.10975610     0.48780488     0.15810543
     0.23170732     0.58536585     0.15810543
     0.35365854     0.68292683     0.15810543
     0.47560976     0.78048780     0.15810543
     0.59756098     0.87804878     0.15810543
     0.71951220     0.97560976     0.15810543
     0.08536585     0.26829268     0.15810543
     0.20731707     0.36585366     0.15810543
     0.32926829     0.46341463     0.15810543
     0.45121951     0.56097561     0.15810543
     0.57317073     0.65853659     0.15810543
     0.69512195     0.75609756     0.15810543
     0.81707317     0.85365854     0.15810543
     0.93902439     0.95121951     0.15810543
     0.06097561     0.04878049     0.15810543
     0.18292683     0.14634146     0.15810543
     0.30487805     0.24390244     0.15810543
     0.42682927     0.34146341     0.15810543
     0.54878049     0.43902439     0.15810543
     0.67073171     0.53658537     0.15810543
     0.79268293     0.63414634     0.15810543
     0.91463415     0.73170732     0.15810543
     1.03658537     0.82926829     0.15810543
     0.40243902     0.12195122     0.15810543
     0.52439024     0.21951220     0.15810543
     0.64634146     0.31707317     0.15810543
     0.76829268     0.41463415     0.15810543
     0.89024390     0.51219512     0.15810543
     1.01219512     0.60975610     0.15810543
     0.62195122     0.09756098     0.15810543
     0.74390244     0.19512195     0.15810543
     0.86585366     0.29268293     0.15810543
     0.98780488     0.39024390     0.15810543
     0.84146341     0.07317073     0.15810543
     0.96341463     0.17073171     0.15810543
     0.14634146     0.81707317     0.29315587
     0.26829268     0.91463415     0.29315587
     0.12195122     0.59756098     0.29315587
     0.24390244     0.69512195     0.29315587
     0.36585366     0.79268293     0.29315587
     0.48780488     0.89024390     0.29315587
     0.09756098     0.37804878     0.29315587
     0.21951220     0.47560976     0.29315587
     0.34146341     0.57317073     0.29315587
     0.46341463     0.67073171     0.29315587
     0.58536585     0.76829268     0.29315587
     0.70731707     0.86585366     0.29315587
     0.07317073     0.15853659     0.29315587
     0.19512195     0.25609756     0.29315587
     0.31707317     0.35365854     0.29315587
     0.43902439     0.45121951     0.29315587
     0.56097561     0.54878049     0.29315587
     0.68292683     0.64634146     0.29315587
     0.80487805     0.74390244     0.29315587
     0.92682927     0.84146341     0.29315587
     0.04878049    -0.06097561     0.29315587
     0.17073171     0.03658537     0.29315587
     0.29268293     0.13414634     0.29315587
     0.41463415     0.23170732     0.29315587
     0.53658537     0.32926829     0.29315587
     0.65853659     0.42682927     0.29315587
     0.78048780     0.52439024     0.29315587
     0.90243902     0.62195122     0.29315587
     1.02439024     0.71951220     0.29315587
     0.39024390     0.01219512     0.29315587
     0.51219512     0.10975610     0.29315587
     0.63414634     0.20731707     0.29315587
     0.75609756     0.30487805     0.29315587
     0.87804878     0.40243902     0.29315587
     1.00000000     0.50000000     0.29315587
     0.60975610    -0.01219512     0.29315587
     0.73170732     0.08536585     0.29315587
     0.85365854     0.18292683     0.29315587
     0.97560976     0.28048780     0.29315587
     0.82926829    -0.03658537     0.29315587
     0.95121951     0.06097561     0.29315587
     0.07317073     0.84146341     0.50126131
     0.17073171     0.96341463     0.50126131
     0.09756098     0.62195122     0.50126131
     0.19512195     0.74390244     0.50126131
     0.29268293     0.86585366     0.50126131
     0.39024390     0.98780488     0.50126131
     0.12195122     0.40243902     0.50126131
     0.21951220     0.52439024     0.50126131
     0.31707317     0.64634146     0.50126131
     0.41463415     0.76829268     0.50126131
     0.51219512     0.89024390     0.50126131
     0.60975610     1.01219512     0.50126131
     0.04878049     0.06097561     0.50126131
     0.14634146     0.18292683     0.50126131
     0.24390244     0.30487805     0.50126131
     0.34146341     0.42682927     0.50126131
     0.43902439     0.54878049     0.50126131
     0.53658537     0.67073171     0.50126131
     0.63414634     0.79268293     0.50126131
     0.73170732     0.91463415     0.50126131
     0.82926829     1.03658537     0.50126131
     0.26829268     0.08536585     0.50126131
     0.36585366     0.20731707     0.50126131
     0.46341463     0.32926829     0.50126131
     0.56097561     0.45121951     0.50126131
     0.65853659     0.57317073     0.50126131
     0.75609756     0.69512195     0.50126131
     0.85365854     0.81707317     0.50126131
     0.95121951     0.93902439     0.50126131
     0.48780488     0.10975610     0.50126131
     0.58536585     0.23170732     0.50126131
     0.68292683     0.35365854     0.50126131
     0.78048780     0.47560976     0.50126131
     0.87804878     0.59756098     0.50126131
     0.97560976     0.71951220     0.50126131
     0.70731707     0.13414634     0.50126131
     0.80487805     0.25609756     0.50126131
     0.90243902     0.37804878     0.50126131
     1.00000000     0.50000000     0.50126131
     0.92682927     0.15853659     0.50126131
     1.02439024     0.28048780     0.50126131
     0.08536585     0.73170732     0.63631175
     0.18292683     0.85365854     0.63631175
     0.10975610     0.51219512     0.63631175
     0.20731707     0.63414634     0.63631175
     0.30487805     0.75609756     0.63631175
     0.40243902     0.87804878     0.63631175
     0.13414634     0.29268293     0.63631175
     0.23170732     0.41463415     0.63631175
     0.32926829     0.53658537     0.63631175
     0.42682927     0.65853659     0.63631175
     0.52439024     0.78048780     0.63631175
     0.62195122     0.90243902     0.63631175
     0.06097561    -0.04878049     0.63631175
     0.15853659     0.07317073     0.63631175
     0.25609756     0.19512195     0.63631175
     0.35365854     0.31707317     0.63631175
     0.45121951     0.43902439     0.63631175
     0.54878049     0.56097561     0.63631175
     0.64634146     0.68292683     0.63631175
     0.74390244     0.80487805     0.63631175
     0.84146341     0.92682927     0.63631175
     0.28048780    -0.02439024     0.63631175
     0.37804878     0.09756098     0.63631175
     0.47560976     0.21951220     0.63631175
     0.57317073     0.34146341     0.63631175
     0.67073171     0.46341463     0.63631175
     0.76829268     0.58536585     0.63631175
     0.86585366     0.70731707     0.63631175
     0.96341463     0.82926829     0.63631175
     0.50000000     0.00000000     0.63631175
     0.59756098     0.12195122     0.63631175
     0.69512195     0.24390244     0.63631175
     0.79268293     0.36585366     0.63631175
     0.89024390     0.48780488     0.63631175
     0.98780488     0.60975610     0.63631175
     0.71951220     0.02439024     0.63631175
     0.81707317     0.14634146     0.63631175
     0.91463415     0.26829268     0.63631175
     1.01219512     0.39024390     0.63631175
     0.93902439     0.04878049     0.63631175
     1.03658537     0.17073171     0.63631175
     0.20731707     0.86585366     0.10000000
     0.32926829     0.96341463     0.10000000
     0.18292683     0.64634146     0.10000000
     0.30487805     0.74390244     0.10000000
     0.42682927     0.84146341     0.10000000
     0.54878049     0.93902439     0.10000000
     0.15853659     0.42682927     0.10000000
     0.28048780     0.52439024     0.10000000
     0.40243902     0.62195122     0.10000000
     0.52439024     0.71951220     0.10000000
     0.64634146     0.81707317     0.10000000
     0.76829268     0.91463415     0.10000000
     0.13414634     0.20731707     0.10000000
     0.25609756     0.30487805     0.10000000
     0.37804878     0.40243902     0.10000000
     0.50000000     0.50000000     0.10000000
     0.62195122     0.59756098     0.10000000
     0.74390244     0.69512195     0.10000000
     0.86585366     0.79268293     0.10000000
     0.98780488     0.89024390     0.10000000
     0.10975610    -0.01219512     0.10000000
     0.23170732     0.08536585     0.10000000
     0.35365854     0.18292683     0.10000000
     0.47560976     0.28048780     0.10000000
     0.59756098     0.37804878     0.10000000
     0.71951220     0.47560976     0.10000000
     0.84146341     0.57317073     0.10000000
     0.96341463     0.67073171     0.10000000
     1.08536585     0.76829268     0.10000000
     0.45121951     0.06097561     0.10000000
     0.57317073     0.15853659     0.10000000
     0.69512195     0.25609756     0.10000000
     0.81707317     0.35365854     0.10000000
     0.93902439     0.45121951     0.10000000
     1.06097561     0.54878049     0.10000000
     0.67073171     0.03658537     0.10000000
     0.79268293     0.13414634     0.10000000
     0.91463415     0.23170732     0.10000000
     1.03658537     0.32926829     0.10000000
     0.89024390     0.01219512     0.10000000
     1.01219512     0.10975610     0.10000000
     0.09756098     0.87804878     0.10000000
     0.21951220     0.97560976     0.10000000
     0.07317073     0.65853659     0.10000000
     0.19512195     0.75609756     0.10000000
     0.31707317     0.85365854     0.10000000
     0.43902439     0.95121951     0.10000000
     0.04878049     0.43902439     0.10000000
     0.17073171     0.53658537     0.10000000
     0.29268293     0.63414634     0.10000000
     0.41463415     0.73170732     0.10000000
     0.53658537     0.82926829     0.10000000
     0.65853659     0.92682927     0.10000000
     0.02439024     0.21951220     0.10000000
     0.14634146     0.31707317     0.10000000
     0.26829268     0.41463415     0.10000000
     0.39024390     0.51219512     0.10000000
     0.51219512     0.60975610     0.10000000
     0.63414634     0.70731707     0.10000000
     0.75609756     0.80487805     0.10000000
     0.87804878     0.90243902     0.10000000
     0.00000000     0.00000000     0.10000000
     0.12195122     0.09756098     0.10000000
     0.24390244     0.19512195     0.10000000
     0.36585366     0.29268293     0.10000000
     0.48780488     0.39024390     0.10000000
     0.60975610     0.48780488     0.10000000
     0.73170732     0.58536585     0.10000000
     0.85365854     0.68292683     0.10000000
     0.97560976     0.78048780     0.10000000
     0.34146341     0.07317073     0.10000000
     0.46341463     0.17073171     0.10000000
     0.58536585     0.26829268     0.10000000
     0.70731707     0.36585366     0.10000000
     0.82926829     0.46341463     0.10000000
     0.95121951     0.56097561     0.10000000
     0.56097561     0.04878049     0.10000000
     0.68292683     0.14634146     0.10000000
     0.80487805     0.24390244     0.10000000
     0.92682927     0.34146341     0.10000000
     0.78048780     0.02439024     0.10000000
     0.90243902     0.12195122     0.10000000
     0.13414634     0.79268293     0.44315587
     0.23170732     0.91463415     0.44315587
     0.15853659     0.57317073     0.44315587
     0.25609756     0.69512195     0.44315587
     0.35365854     0.81707317     0.44315587
     0.45121951     0.93902439     0.44315587
     0.18292683     0.35365854     0.44315587
     0.28048780     0.47560976     0.44315587
     0.37804878     0.59756098     0.44315587
     0.47560976     0.71951220     0.44315587
     0.57317073     0.84146341     0.44315587
     0.67073171     0.96341463     0.44315587
     0.10975610     0.01219512     0.44315587
     0.20731707     0.13414634     0.44315587
     0.30487805     0.25609756     0.44315587
     0.40243902     0.37804878     0.44315587
     0.50000000     0.50000000     0.44315587
     0.59756098     0.62195122     0.44315587
     0.69512195     0.74390244     0.44315587
     0.79268293     0.86585366     0.44315587
     0.89024390     0.98780488     0.44315587
     0.32926829     0.03658537     0.44315587
     0.42682927     0.15853659     0.44315587
     0.52439024     0.28048780     0.44315587
     0.62195122     0.40243902     0.44315587
     0.71951220     0.52439024     0.44315587
     0.81707317     0.64634146     0.44315587
     0.91463415     0.76829268     0.44315587
     1.01219512     0.89024390     0.44315587
     0.54878049     0.06097561     0.44315587
     0.64634146     0.18292683     0.44315587
     0.74390244     0.30487805     0.44315587
     0.84146341     0.42682927     0.44315587
     0.93902439     0.54878049     0.44315587
     1.03658537     0.67073171     0.44315587
     0.76829268     0.08536585     0.44315587
     0.86585366     0.20731707     0.44315587
     0.96341463     0.32926829     0.44315587
     1.06097561     0.45121951     0.44315587
     0.98780488     0.10975610     0.44315587
     1.08536585     0.23170732     0.44315587
     0.02439024     0.78048780     0.44315587
     0.12195122     0.90243902     0.44315587
     0.04878049     0.56097561     0.44315587
     0.14634146     0.68292683     0.44315587
     0.24390244     0.80487805     0.44315587
     0.34146341     0.92682927     0.44315587
     0.07317073     0.34146341     0.44315587
     0.17073171     0.46341463     0.44315587
     0.26829268     0.58536585     0.44315587
     0.36585366     0.70731707     0.44315587
     0.46341463     0.82926829     0.44315587
     0.56097561     0.95121951     0.44315587
     0.00000000     0.00000000     0.44315587
     0.09756098     0.12195122     0.44315587
     0.19512195     0.24390244     0.44315587
     0.29268293     0.36585366     0.44315587
     0.39024390     0.48780488     0.44315587
     0.48780488     0.60975610     0.44315587
     0.58536585     0.73170732     0.44315587
     0.68292683     0.85365854     0.44315587
     0.78048780     0.97560976     0.44315587
     0.21951220     0.02439024     0.44315587
     0.31707317     0.14634146     0.44315587
     0.41463415     0.26829268     0.44315587
     0.51219512     0.39024390     0.44315587
     0.60975610     0.51219512     0.44315587
     0.70731707     0.63414634     0.44315587
     0.80487805     0.75609756     0.44315587
     0.90243902     0.87804878     0.44315587
     0.43902439     0.04878049     0.44315587
     0.53658537     0.17073171     0.44315587
     0.63414634     0.29268293     0.44315587
     0.73170732     0.41463415     0.44315587
     0.82926829     0.53658537     0.44315587
     0.92682927     0.65853659     0.44315587
     0.65853659     0.07317073     0.44315587
     0.75609756     0.19512195     0.44315587
     0.85365854     0.31707317     0.44315587
     0.95121951     0.43902439     0.44315587
     0.87804878     0.09756098     0.44315587
     0.97560976     0.21951220     0.44315587
